%BLOCK LATTICE_CART
4.4533585076 0 0 
0 3.1490 0
0 0 4.4533585076
%ENDBLOCK LATTICE_CART
%BLOCK POSITIONS_FRAC
Mo 0.0 0.0 0.0 
Mo 0.5 0.5 0.0
Mo 0.5 0.0 0.5
Mo 0.0 0.5 0.5
%END BLOCK POSITIONS_FRAC
%BLOCK SPECIES_POT
Mo Mo.PBE.recpot
%END BLOCK SPECIES_POT
