%BLOCK LATTICE_CART
8.9067170152 0 0
0 6.298 0
0 0 17.8134340304
%END BLOCK LATTICE_CART
%BLOCK POSITIONS_CART
Mo 0 0 0
Mo 0 0 4.4533585076
Mo 0 0 8.9067170152
Mo 0 0 13.3600755228
Mo 0 3.149 0
Mo 0 3.149 4.4533585076
Mo 0 3.149 8.9067170152
Mo 0 3.149 13.3600755228
Mo 4.4533585076 0 0
Mo 4.4533585076 0 4.4533585076
Mo 4.4533585076 0 8.9067170152
Mo 4.4533585076 0 13.3600755228
Mo 4.4533585076 3.149 0
Mo 4.4533585076 3.149 4.4533585076
Mo 4.4533585076 3.149 8.9067170152
Mo 4.4533585076 3.149 13.3600755228
Mo 2.2266792538 1.5745 0
Mo 2.2266792538 1.5745 4.4533585076
Mo 2.2266792538 1.5745 8.9067170152
Mo 2.2266792538 1.5745 13.3600755228
Mo 2.2266792538 4.7235 0
Mo 2.2266792538 4.7235 4.4533585076
Mo 2.2266792538 4.7235 8.9067170152
Mo 2.2266792538 4.7235 13.3600755228
Mo 6.680037761399999 1.5745 0
Mo 6.680037761399999 1.5745 4.4533585076
Mo 6.680037761399999 1.5745 8.9067170152
Mo 6.680037761399999 1.5745 13.3600755228
Mo 6.680037761399999 4.7235 0
Mo 6.680037761399999 4.7235 4.4533585076
Mo 6.680037761399999 4.7235 8.9067170152
Mo 6.680037761399999 4.7235 13.3600755228
Mo 2.2266792538 0 2.2266792538
Mo 2.2266792538 0 6.680037761399999
Mo 2.2266792538 0 11.133396269
Mo 2.2266792538 0 15.5867547766
Mo 2.2266792538 3.149 2.2266792538
Mo 2.2266792538 3.149 6.680037761399999
Mo 2.2266792538 3.149 11.133396269
Mo 2.2266792538 3.149 15.5867547766
Mo 6.680037761399999 0 2.2266792538
Mo 6.680037761399999 0 6.680037761399999
Mo 6.680037761399999 0 11.133396269
Mo 6.680037761399999 0 15.5867547766
Mo 6.680037761399999 3.149 2.2266792538
Mo 6.680037761399999 3.149 6.680037761399999
Mo 6.680037761399999 3.149 11.133396269
Mo 6.680037761399999 3.149 15.5867547766
Mo 0 1.5745 2.2266792538
Mo 0 1.5745 6.680037761399999
Mo 0 1.5745 11.133396269
Mo 0 1.5745 15.5867547766
Mo 0 4.7235 2.2266792538
Mo 0 4.7235 6.680037761399999
Mo 0 4.7235 11.133396269
Mo 0 4.7235 15.5867547766
Mo 4.4533585076 1.5745 2.2266792538
Mo 4.4533585076 1.5745 6.680037761399999
Mo 4.4533585076 1.5745 11.133396269
Mo 4.4533585076 1.5745 15.5867547766
Mo 4.4533585076 4.7235 2.2266792538
Mo 4.4533585076 4.7235 6.680037761399999
Mo 4.4533585076 4.7235 11.133396269
Mo 4.4533585076 4.7235 15.5867547766
%END BLOCK POSITIONS_CART
%BLOCK SPECIES_POT
Mo Mo.PBE.recpot
%END BLOCK SPECIES_POT
