&CONTROL
  calculation      = "scf",
  pseudo_dir       = "./",
  prefix           = "Aluminium",
  wf_collect       = .True.,
  outdir           = "./",
/
&SYSTEM
  ibrav            = 2,
  celldm(1)        = 4.0d0,
  nat              = 1,
  ntyp             = 1,
  occupations      ='smearing',
  smearing         ='fermi-dirac',
  degauss          = 0.6d0,
  ecutwfc          = 20.0D0,
  nbnd             = 16,
/
&ELECTRONS
  electron_maxstep = 200,
  diagonalization = 'cg'
  mixing_mode      = 'plain',
  conv_thr         = 1.0D-8,
  mixing_beta      = 0.7D0,
/
ATOMIC_SPECIES
Al  26.98  Al_ONCV_PBE-1.0.upf
ATOMIC_POSITIONS (crystal)
Al 0 0 0
K_POINTS automatic
2 2 2 0 0 0
