%BLOCK LATTICE_CART
3.55435 0 0
0 3.55435 0
0 0 3.55435
%ENDBLOCK LATTICE_CART
%BLOCK POSITIONS_FRAC
Li  0    0       0
Li  0.5  0.5     0.5
%END BLOCK POSITIONS_FRAC
%BLOCK SPECIES_POT
Li li.gga.recpot
%END BLOCK SPECIES_POT
