Lithium                                 
   3.49807970000000     
     4.9999999999999991    0.0000000000000000    0.0000000000000000
     0.0000000000000000    4.9999999999999991    0.0000000000000000
     0.0000000000000000    0.0000000000000000    4.9999999999999991
   Li
   250
Selective dynamics
Direct
  0.5305357339627729  0.9125932521169454  0.0376307590340938   T   T   T
  0.1145962231816713  0.8212141319932431  0.3263213383058759   T   T   T
  0.9154562798540566  0.4557154437687191  0.7650026927782021   T   T   T
  0.4425525992360150  0.7847935182566834  0.5857866726249430   T   T   T
  0.3230113841735404  0.2686032769052018  0.6357702002959408   T   T   T
  0.8277608039317863  0.3658608035504651  0.3193453966841269   T   T   T
  0.8676100550042833  0.0344975956933545  0.4683059208130846   T   T   T
  0.9322415205374674  0.3701431646865942  0.4574356790083963   T   T   T
  0.2276402120658379  0.3827429921898413  0.3059800671154231   T   T   T
  0.7634315277369387  0.6049880346609127  0.2063440512807445   T   T   T
  0.2234093999866718  0.9658117790342925  0.0458542121904857   T   T   T
  0.1221731570909306  0.9279958418324107  0.4900303153819054   T   T   T
  0.8036086374522631  0.3857646850621335  0.6166029658515753   T   T   T
  0.7994563386153549  0.9011873003855819  0.2578062063930553   T   T   T
  0.2165992430545487  0.5870153027838534  0.6615598438914407   T   T   T
  0.4874671617175108  0.8935467378208445  0.4404647998712142   T   T   T
  0.5357856818068746  0.3812304932140531  0.7813403194542251   T   T   T
  0.7056637410553260  0.4404593098512312  0.7421590186902427   T   T   T
  0.5725800836856412  0.5339148524085893  0.3906312528140907   T   T   T
  0.2835102716860606  0.6512071209407365  0.8285529580676553   T   T   T
  0.8130701968741796  0.0294565107525080  0.9176386144906391   T   T   T
  0.3744402447891456  0.7041902737675597  0.4961803126173275   T   T   T
  0.4232821868088165  0.7201678202271540  0.8338798680197784   T   T   T
  0.1723197618623373  0.8131675195956435  0.0779115107884046   T   T   T
  0.9757446242113715  0.4544819144037842  0.5908491112816401   T   T   T
  0.6635475647660052  0.3923156595036147  0.0576826532797719   T   T   T
  0.2556786429467816  0.6788652239995906  0.3523721179534215   T   T   T
  0.7046892146098271  0.9551941767990416  0.6641926368307256   T   T   T
  0.5752313277079556  0.2362872432296623  0.5029056224757800   T   T   T
  0.3907645880247415  0.1142987787906187  0.7167551471693442   T   T   T
  0.1561771793919506  0.1914619102196908  0.5334972581631069   T   T   T
  0.6838274626013132  0.9617754937093506  0.4793010834323145   T   T   T
  0.5412694702887775  0.7994530111445559  0.1342245845902346   T   T   T
  0.2011660492993116  0.0579109924638205  0.4547590045067936   T   T   T
  0.0183046082477130  0.5756369854438973  0.1125791714118970   T   T   T
  0.9334262158705593  0.3632651942612233  0.9557363975156604   T   T   T
  0.5520770632453569  0.6249382180310259  0.5689136015073482   T   T   T
  0.7080555010487912  0.6650487116222161  0.5066456817040857   T   T   T
  0.9594140828372496  0.6468212794415183  0.7831534196817317   T   T   T
  0.9691223025963044  0.9462742911257422  0.8608252024762706   T   T   T
  0.1232646914118678  0.5057750335069814  0.2572257630820893   T   T   T
  0.0636071970810352  0.5698094104682502  0.6761306218379948   T   T   T
  0.3589765132787531  0.5960117685344584  0.9766972720099655   T   T   T
  0.6757992146420080  0.8894995978811757  0.9922325029952819   T   T   T
  0.1234249995955210  0.1633592761102272  0.9629645381486911   T   T   T
  0.3791863638828932  0.9831478763959213  0.9866405043335497   T   T   T
  0.9747011908144851  0.0543291733254074  0.3125141667153614   T   T   T
  0.1345689457285490  0.8286573509067096  0.9184407109122227   T   T   T
  0.4523595910272266  0.8570393079968902  0.9055109611294225   T   T   T
  0.8092035575650812  0.5221077954404518  0.5212168877401721   T   T   T
  0.9688282968309171  0.9065510321544462  0.3681773424790280   T   T   T
  0.9379932733356419  0.9705322704075031  0.2082520392762504   T   T   T
  0.3436459111420677  0.8458062393179373  0.0954756865609761   T   T   T
  0.5344197540056445  0.5510469505795987  0.0614492786170967   T   T   T
  0.6625022137786400  0.4626913334761263  0.5399559427776820   T   T   T
  0.7418872829545955  0.7223992217450588  0.0090929707360623   T   T   T
  0.3774891908695980  0.0407958474331916  0.1301689406389138   T   T   T
  0.8769027309843247  0.6005231740745436  0.6764724914566507   T   T   T
  0.1172587083492224  0.9647742663421242  0.1534570591066712   T   T   T
  0.3638802135967493  0.4329062375890143  0.6230884202803589   T   T   T
  0.4747543513411417  0.2384760016006508  0.7454896995605731   T   T   T
  0.2330371770703433  0.4802765684645857  0.1044614550963156   T   T   T
  0.8779563279467133  0.7756133150990210  0.2263079111673247   T   T   T
  0.2413990310274690  0.5185385634249342  0.3726018676558802   T   T   T
  0.5939070364873097  0.1541409471421638  0.8762004595853938   T   T   T
  0.2990491035695290  0.5545976358681881  0.5186542662982596   T   T   T
  0.6442708105489537  0.6719698035394874  0.1266942869733156   T   T   T
  0.1403271801092246  0.2926183255344210  0.2206539562121815   T   T   T
  0.3110682264752975  0.5544381244898650  0.2530500686761595   T   T   T
  0.2815043052648256  0.3798284795363353  0.4811527314449025   T   T   T
  0.9144326197018305  0.5028097284292857  0.0037760446651055   T   T   T
  0.5019466069134146  0.3245260435974313  0.2552858938577297   T   T   T
  0.9247744678965405  0.3127157232031857  0.6401083573561517   T   T   T
  0.6976144769416233  0.7216731344127244  0.6459884492183005   T   T   T
  0.9385674728740825  0.9174314044681469  0.5349245842364435   T   T   T
  0.0482737875936734  0.2094473893178972  0.4064144183839821   T   T   T
  0.7780899678878148  0.0373911215433990  0.3238291887185074   T   T   T
  0.2712280940082702  0.7372102282012544  0.6213825385776074   T   T   T
  0.0204680774327060  0.3606806059998874  0.3092311841302498   T   T   T
  0.2348107846311285  0.4636781208030134  0.7757181896437226   T   T   T
  0.5528123080599616  0.3832170587991902  0.4310798287806392   T   T   T
  0.4205003840617263  0.7187443634782764  0.0364802359687598   T   T   T
  0.5139102783190178  0.2880343531712286  0.9284944539707711   T   T   T
  0.1144298181946065  0.9845946263313142  0.3206689440381698   T   T   T
  0.4024309831265985  0.4462371506355053  0.3582877629782193   T   T   T
  0.2543088563779463  0.2333421155861696  0.8876699485415437   T   T   T
  0.8104659228997217  0.0307677970039872  0.7666744012219646   T   T   T
  0.2567402919836762  0.9544711403045136  0.7190291348884955   T   T   T
  0.7270721401538127  0.5680855402288186  0.6465035921134168   T   T   T
  0.2247332987630768  0.1406069320005174  0.7427420343963628   T   T   T
  0.4321233050238031  0.6114995336683485  0.3454679092760730   T   T   T
  0.0493123194908476  0.2684129230539625  0.0699993514463030   T   T   T
  0.8065489795848365  0.5610718037564282  0.8227937079117799   T   T   T
  0.9742736355004965  0.4947670712030380  0.4080747640005279   T   T   T
  0.1765335213537412  0.5779933262532311  0.9613977620637744   T   T   T
  0.1356918056191790  0.0476989445177461  0.6358227155416732   T   T   T
  0.5062539156763587  0.4925799297847692  0.2441662275259399   T   T   T
  0.5073141204523608  0.3848200628190586  0.0979356178145272   T   T   T
  0.6712001810489180  0.5267607228458208  0.9227306606608694   T   T   T
  0.0201378465105867  0.5909819560696358  0.9326888550467112   T   T   T
  0.7896826942252172  0.4299122655105456  0.9199556331117281   T   T   T
  0.7452611488041385  0.5502224706540352  0.0458702456191002   T   T   T
  0.2190675531240588  0.8018626611929568  0.4701791205311245   T   T   T
  0.1633835034562322  0.6813190370128510  0.5288438558959591   T   T   T
  0.4855992675782123  0.3298618226744642  0.6234374636295488   T   T   T
  0.8399813401780071  0.7080817020678094  0.5287128308716661   T   T   T
  0.9111046173875413  0.2151143284611330  0.0706778909093156   T   T   T
  0.2275885234254607  0.7904386307117440  0.7640328987058989   T   T   T
  0.5110146898552358  0.4452773741155713  0.9618845926088994   T   T   T
  0.5516440378999152  0.0399550408349479  0.5379195393228405   T   T   T
  0.7983261058151857  0.2922991004505320  0.0045196464463672   T   T   T
  0.9757571311946257  0.6343879297051602  0.5399215448236766   T   T   T
  0.7245095749087986  0.4853408538865835  0.3380733488963200   T   T   T
  0.3980914352970160  0.6136071790970009  0.6665238074607043   T   T   T
  0.9496790580051877  0.1729636768111154  0.9290424989790622   T   T   T
  0.3207511364280020  0.1395454684626767  0.3501130229014685   T   T   T
  0.0496306573376612  0.7852747105674557  0.4886883784662255   T   T   T
  0.3946428871099304  0.5511416441944238  0.1283562886872133   T   T   T
  0.7904245514715478  0.2705934979592164  0.1787819594098729   T   T   T
  0.7728133031564050  0.8397754634473337  0.5589258905969027   T   T   T
  0.4752975124636088  0.1706175524481811  0.5883294321889632   T   T   T
  0.0474816895851615  0.8246716841936635  0.7676237374017981   T   T   T
  0.3532222718365875  0.3958109926673127  0.1821250303395061   T   T   T
  0.8019166321970154  0.8854835047307410  0.4101515242994132   T   T   T
  0.2794466572328832  0.9037504001742732  0.3678408503911837   T   T   T
  0.7396895333722022  0.1472117529209062  0.4952099836847239   T   T   T
  0.2941302864988419  0.1284040235066370  0.0256398088040016   T   T   T
  0.0519765469277848  0.3099730619575046  0.5545319812194589   T   T   T
  0.9730482419972366  0.2825426859657612  0.8082136848467706   T   T   T
  0.9718719570670724  0.7598077165109295  0.8981127658116091   T   T   T
  0.5397991269714363  0.7034720514945072  0.4530132480179238   T   T   T
  0.2883134418051839  0.2033935097784885  0.1903179482905620   T   T   T
  0.0376711990351830  0.8162858235245649  0.1813668404077166   T   T   T
  0.9014403229269677  0.1471312802726839  0.7840200130985400   T   T   T
  0.8261145407870719  0.7339984800722209  0.7427623827388614   T   T   T
  0.2121405306313813  0.3239555523390916  0.7739096899208390   T   T   T
  0.0351291516985758  0.0724517050224479  0.4988115296691878   T   T   T
  0.7322011556463572  0.3113243322220638  0.4675921854625138   T   T   T
  0.6176725916801745  0.5477908112891241  0.7790365645845081   T   T   T
  0.1283720117437516  0.5198850200721912  0.5329528631710136   T   T   T
  0.6414250728965442  0.0535917514111776  0.0054757305556377   T   T   T
  0.2230146435834942  0.4298441374498531  0.9244571149859803   T   T   T
  0.8988219916886423  0.2187022857486549  0.5154306212756781   T   T   T
  0.3165316030109396  0.1864060374940579  0.5124145441227734   T   T   T
  0.5223182907229128  0.6031856414902699  0.9109379245222295   T   T   T
  0.9191126549132240  0.5138579233546599  0.2720707128888252   T   T   T
  0.3836547195811765  0.8093028367670027  0.3619058626818955   T   T   T
  0.8106097049656812  0.8540753950626924  0.9109599195191554   T   T   T
  0.5782027922673454  0.7191397169977025  0.0059817935331144   T   T   T
  0.6380317517135776  0.5204829354328673  0.1696322225366743   T   T   T
  0.0845051815631347  0.4755804941224033  0.8491816489333548   T   T   T
  0.6067669837709718  0.2448425686868548  0.1317300551836109   T   T   T
  0.8605772920223217  0.0941792636470887  0.1813457820535377   T   T   T
  0.3939661124653371  0.0276468411162922  0.4768501904266254   T   T   T
  0.5857521364320981  0.9728652363052733  0.1552708560785023   T   T   T
  0.0844112625168891  0.4456738739566616  0.0268444668103788   T   T   T
  0.3537117518886979  0.2830906890509633  0.3321997462865133   T   T   T
  0.4591236887834674  0.4994763270953542  0.5045818970395712   T   T   T
  0.8370637738578069  0.6513990622154165  0.9256624793609247   T   T   T
  0.9308444033934845  0.7667668770860193  0.3864851375309016   T   T   T
  0.2949547627312783  0.0638925894225963  0.6068378795363527   T   T   T
  0.9918500197066239  0.4122455144729778  0.1596751682067229   T   T   T
  0.5043516620061805  0.1173463885825490  0.0394956571341020   T   T   T
  0.0972671561006995  0.3337955148514489  0.9030549539094197   T   T   T
  0.5378183284774913  0.9932094454487178  0.8976107922495754   T   T   T
  0.7261601428346346  0.8112849693851821  0.1674940431638851   T   T   T
  0.5039398605861949  0.1374548861496603  0.2233178094352256   T   T   T
  0.3283548039057376  0.9071249097448446  0.5657785746086113   T   T   T
  0.4298744134186391  0.1135422850704480  0.8873298739678821   T   T   T
  0.4165744390262658  0.2980349325117660  0.4743279691359923   T   T   T
  0.6387938388105746  0.3290645136871992  0.6074284245026031   T   T   T
  0.8053062390268827  0.2061107773726416  0.6551370656003542   T   T   T
  0.6003900457661602  0.7994650848831104  0.8740956442852452   T   T   T
  0.4145687602035831  0.5018904374397936  0.8111658118628209   T   T   T
  0.6696563438667783  0.2495159496381555  0.3303342728199263   T   T   T
  0.5442642041357902  0.4702046485681105  0.6452823518031420   T   T   T
  0.0734414576787173  0.1131528345649277  0.7989246900572465   T   T   T
  0.0473626551247835  0.8990596388193334  0.6320841628117444   T   T   T
  0.0529542787697193  0.7034084183660186  0.0501228898635827   T   T   T
  0.6013448325788868  0.8528159215632881  0.5846808481873215   T   T   T
  0.6451000054781879  0.3801198550954444  0.2257350072254497   T   T   T
  0.6289222032496071  0.6419412653897308  0.3251450811265627   T   T   T
  0.8058295101526632  0.4212427597906235  0.1255412242534043   T   T   T
  0.9421276850196764  0.7641948754672078  0.6229206262368768   T   T   T
  0.6539190851496552  0.1550558366633971  0.6434841033010507   T   T   T
  0.8532128358787309  0.0616730664141519  0.6277964981759917   T   T   T
  0.2573523558917014  0.6587689108144995  0.0927548643266552   T   T   T
  0.0086655231626495  0.1440296085680433  0.6376827198413252   T   T   T
  0.1578083564344810  0.1467927301357030  0.2959175172705867   T   T   T
  0.6860261169710774  0.1163814083077753  0.2220114257323836   T   T   T
  0.7743993975628579  0.1869960060613509  0.8798124589188827   T   T   T
  0.4489764305130418  0.9864008596542753  0.2956495079024865   T   T   T
  0.3730914317814114  0.3176687224204872  0.8033346772327069   T   T   T
  0.0756870768333903  0.4150820126360436  0.7160902818489950   T   T   T
  0.0115279773715756  0.8922732202999284  0.0069331046262875   T   T   T
  0.1057008681425870  0.6040123074038728  0.4025849643326912   T   T   T
  0.9818055183345576  0.0269405358499937  0.6958784866895221   T   T   T
  0.3960095223617261  0.9724256372239261  0.7990807841610614   T   T   T
  0.2076299861673010  0.3094564326673711  0.0512964348740178   T   T   T
  0.1016504256277699  0.7141028154855247  0.6691302899234067   T   T   T
  0.9757799169861542  0.6612107842995902  0.2509547493385359   T   T   T
  0.5992191689054893  0.1012163643593998  0.3828416061554436   T   T   T
  0.6469247049196923  0.8032138694318085  0.4276784643826310   T   T   T
  0.1841291470547013  0.8638915133902336  0.6245378766493446   T   T   T
  0.2463407499540728  0.0524853708043847  0.8857045225095286   T   T   T
  0.1045652385080625  0.9980952276394812  0.9642056294073935   T   T   T
  0.5439961175076604  0.8870687892871295  0.7395160431309620   T   T   T
  0.5416196102608541  0.0593464097049374  0.7325117796344485   T   T   T
  0.1303151842059523  0.9547988228680926  0.8140976731544304   T   T   T
  0.2975102793065709  0.8723899648684965  0.8898331939568347   T   T   T
  0.7485545886216255  0.7426504941655605  0.3388513124319913   T   T   T
  0.8575001991164981  0.8734988346726538  0.7085443310426093   T   T   T
  0.4945560021734312  0.6614834198267440  0.2053439196523767   T   T   T
  0.9285021325285077  0.0327880279218965  0.0258147595495131   T   T   T
  0.4284749315115714  0.2281589894706378  0.1209941973579800   T   T   T
  0.4338390636815740  0.8694871099332057  0.2089725541021781   T   T   T
  0.9607596396426692  0.2337451745978126  0.2454539162434087   T   T   T
  0.8370594928221746  0.6229224646123223  0.4012805091105506   T   T   T
  0.1528272320723519  0.1092713891949858  0.1253368638226702   T   T   T
  0.3729915045152101  0.8342081566408118  0.7412529461261125   T   T   T
  0.4607383811108935  0.1713202170475126  0.3861802339814548   T   T   T
  0.7796240321225144  0.1211263923783581  0.0536259473332839   T   T   T
  0.2613730928902496  0.0413121316852082  0.2575265754229480   T   T   T
  0.1071955178992016  0.3893961370819288  0.4296581462603066   T   T   T
  0.6507323262315903  0.2695240655656967  0.7484511300841783   T   T   T
  0.6541567713265725  0.3640691669900599  0.8770939408551427   T   T   T
  0.6858842871173739  0.6756519007762523  0.8339087500676146   T   T   T
  0.6517852268968259  0.2373474350050103  0.9775879732502331   T   T   T
  0.1462513199055000  0.6598368392128223  0.2222036864422745   T   T   T
  0.3519840343861101  0.7206083481315392  0.2072964182828071   T   T   T
  0.3830859976193717  0.3168544837004588  0.9614657426151250   T   T   T
  0.8443646881618585  0.1721634768421907  0.3626536155614019   T   T   T
  0.2573247628425348  0.8837163067085525  0.2076777015022610   T   T   T
  0.8106888131297483  0.3172596468935401  0.7911429749170356   T   T   T
  0.2929227329472236  0.7474175188122929  0.9623958040063264   T   T   T
  0.6429194406971862  0.9583445791928498  0.3210047135887200   T   T   T
  0.4503668540566658  0.9544079606697735  0.6442850375880135   T   T   T
  0.6695357774000129  0.0055765923767235  0.8351691180811318   T   T   T
  0.8679246069843430  0.8653227916633360  0.0755486692247211   T   T   T
  0.5520302066468826  0.8131287568895375  0.3039807498363898   T   T   T
  0.7642597669449809  0.9785155072686935  0.1269878078742903   T   T   T
  0.0938506955894951  0.2433876286513878  0.7053789631454316   T   T   T
  0.1907443731987840  0.2562496412639259  0.3915670282736997   T   T   T
  0.1290387507655833  0.6682751031044135  0.8229848486466927   T   T   T
  0.5585586553796789  0.7057793777057321  0.7185352592983695   T   T   T
  0.3600452036449513  0.4530302207934345  0.9990664183350357   T   T   T
  0.8793437155506217  0.6714646526480605  0.0842973989683062   T   T   T
  0.7156950409712731  0.8605632289912012  0.7849653878466077   T   T   T
  0.1838553878510516  0.3789205728886155  0.6058146794960942   T   T   T
  0.0098869942002153  0.1163971524452333  0.1424467250221093   T   T   T
