%BLOCK LATTICE_CART
1.51876121141 0.87685719427 7.33401199687
-1.51876121141 0.87685719427 7.33401199687
0 -1.75371438848 7.33401199687
%ENDBLOCK LATTICE_CART
%BLOCK POSITIONS_FRAC
Li 0.0000000000E+00  0.0000000000E+00  0.0000000000E+00
Li 2.2222644971E-01  2.2222644971E-01  2.2222644971E-01
Li -2.2222644971E-01 -2.2222644971E-01 -2.2222644971E-01
%BLOCK SPECIES_POT
Li li.gga.recpot
%END BLOCK SPECIES_POT
