%BLOCK LATTICE_CART
6.07504484564 3.50742877708 29.33604798748
-6.07504484564 3.50742877708 29.33604798748
0 -7.01485755392 29.33604798748
%END BLOCK LATTICE_CART
%BLOCK POSITIONS_FRAC
Li 0 0 0
Li 0 0 0.25
Li 0 0 0.5
Li 0 0 0.75
Li 0 0.25 0
Li 0 0.25 0.25
Li 0 0.25 0.5
Li 0 0.25 0.75
Li 0 0.5 0
Li 0 0.5 0.25
Li 0 0.5 0.5
Li 0 0.5 0.75
Li 0 0.75 0
Li 0 0.75 0.25
Li 0 0.75 0.5
Li 0 0.75 0.75
Li 0.25 0 0
Li 0.25 0 0.25
Li 0.25 0 0.5
Li 0.25 0 0.75
Li 0.25 0.25 0
Li 0.25 0.25 0.25
Li 0.25 0.25 0.5
Li 0.25 0.25 0.75
Li 0.25 0.5 0
Li 0.25 0.5 0.25
Li 0.25 0.5 0.5
Li 0.25 0.5 0.75
Li 0.25 0.75 0
Li 0.25 0.75 0.25
Li 0.25 0.75 0.5
Li 0.25 0.75 0.75
Li 0.5 0 0
Li 0.5 0 0.25
Li 0.5 0 0.5
Li 0.5 0 0.75
Li 0.5 0.25 0
Li 0.5 0.25 0.25
Li 0.5 0.25 0.5
Li 0.5 0.25 0.75
Li 0.5 0.5 0
Li 0.5 0.5 0.25
Li 0.5 0.5 0.5
Li 0.5 0.5 0.75
Li 0.5 0.75 0
Li 0.5 0.75 0.25
Li 0.5 0.75 0.5
Li 0.5 0.75 0.75
Li 0.75 0 0
Li 0.75 0 0.25
Li 0.75 0 0.5
Li 0.75 0 0.75
Li 0.75 0.25 0
Li 0.75 0.25 0.25
Li 0.75 0.25 0.5
Li 0.75 0.25 0.75
Li 0.75 0.5 0
Li 0.75 0.5 0.25
Li 0.75 0.5 0.5
Li 0.75 0.5 0.75
Li 0.75 0.75 0
Li 0.75 0.75 0.25
Li 0.75 0.75 0.5
Li 0.75 0.75 0.75
Li 0.0555566124275 0.0555566124275 0.0555566124275
Li 0.0555566124275 0.0555566124275 0.3055566124275
Li 0.0555566124275 0.0555566124275 0.5555566124275
Li 0.0555566124275 0.0555566124275 0.8055566124275
Li 0.0555566124275 0.3055566124275 0.0555566124275
Li 0.0555566124275 0.3055566124275 0.3055566124275
Li 0.0555566124275 0.3055566124275 0.5555566124275
Li 0.0555566124275 0.3055566124275 0.8055566124275
Li 0.0555566124275 0.5555566124275 0.0555566124275
Li 0.0555566124275 0.5555566124275 0.3055566124275
Li 0.0555566124275 0.5555566124275 0.5555566124275
Li 0.0555566124275 0.5555566124275 0.8055566124275
Li 0.0555566124275 0.8055566124275 0.0555566124275
Li 0.0555566124275 0.8055566124275 0.3055566124275
Li 0.0555566124275 0.8055566124275 0.5555566124275
Li 0.0555566124275 0.8055566124275 0.8055566124275
Li 0.3055566124275 0.0555566124275 0.0555566124275
Li 0.3055566124275 0.0555566124275 0.3055566124275
Li 0.3055566124275 0.0555566124275 0.5555566124275
Li 0.3055566124275 0.0555566124275 0.8055566124275
Li 0.3055566124275 0.3055566124275 0.0555566124275
Li 0.3055566124275 0.3055566124275 0.3055566124275
Li 0.3055566124275 0.3055566124275 0.5555566124275
Li 0.3055566124275 0.3055566124275 0.8055566124275
Li 0.3055566124275 0.5555566124275 0.0555566124275
Li 0.3055566124275 0.5555566124275 0.3055566124275
Li 0.3055566124275 0.5555566124275 0.5555566124275
Li 0.3055566124275 0.5555566124275 0.8055566124275
Li 0.3055566124275 0.8055566124275 0.0555566124275
Li 0.3055566124275 0.8055566124275 0.3055566124275
Li 0.3055566124275 0.8055566124275 0.5555566124275
Li 0.3055566124275 0.8055566124275 0.8055566124275
Li 0.5555566124275 0.0555566124275 0.0555566124275
Li 0.5555566124275 0.0555566124275 0.3055566124275
Li 0.5555566124275 0.0555566124275 0.5555566124275
Li 0.5555566124275 0.0555566124275 0.8055566124275
Li 0.5555566124275 0.3055566124275 0.0555566124275
Li 0.5555566124275 0.3055566124275 0.3055566124275
Li 0.5555566124275 0.3055566124275 0.5555566124275
Li 0.5555566124275 0.3055566124275 0.8055566124275
Li 0.5555566124275 0.5555566124275 0.0555566124275
Li 0.5555566124275 0.5555566124275 0.3055566124275
Li 0.5555566124275 0.5555566124275 0.5555566124275
Li 0.5555566124275 0.5555566124275 0.8055566124275
Li 0.5555566124275 0.8055566124275 0.0555566124275
Li 0.5555566124275 0.8055566124275 0.3055566124275
Li 0.5555566124275 0.8055566124275 0.5555566124275
Li 0.5555566124275 0.8055566124275 0.8055566124275
Li 0.8055566124275 0.0555566124275 0.0555566124275
Li 0.8055566124275 0.0555566124275 0.3055566124275
Li 0.8055566124275 0.0555566124275 0.5555566124275
Li 0.8055566124275 0.0555566124275 0.8055566124275
Li 0.8055566124275 0.3055566124275 0.0555566124275
Li 0.8055566124275 0.3055566124275 0.3055566124275
Li 0.8055566124275 0.3055566124275 0.5555566124275
Li 0.8055566124275 0.3055566124275 0.8055566124275
Li 0.8055566124275 0.5555566124275 0.0555566124275
Li 0.8055566124275 0.5555566124275 0.3055566124275
Li 0.8055566124275 0.5555566124275 0.5555566124275
Li 0.8055566124275 0.5555566124275 0.8055566124275
Li 0.8055566124275 0.8055566124275 0.0555566124275
Li 0.8055566124275 0.8055566124275 0.3055566124275
Li 0.8055566124275 0.8055566124275 0.5555566124275
Li 0.8055566124275 0.8055566124275 0.8055566124275
Li -0.0555566124275 -0.0555566124275 -0.0555566124275
Li -0.0555566124275 -0.0555566124275 0.1944433875725
Li -0.0555566124275 -0.0555566124275 0.4444433875725
Li -0.0555566124275 -0.0555566124275 0.6944433875725
Li -0.0555566124275 0.1944433875725 -0.0555566124275
Li -0.0555566124275 0.1944433875725 0.1944433875725
Li -0.0555566124275 0.1944433875725 0.4444433875725
Li -0.0555566124275 0.1944433875725 0.6944433875725
Li -0.0555566124275 0.4444433875725 -0.0555566124275
Li -0.0555566124275 0.4444433875725 0.1944433875725
Li -0.0555566124275 0.4444433875725 0.4444433875725
Li -0.0555566124275 0.4444433875725 0.6944433875725
Li -0.0555566124275 0.6944433875725 -0.0555566124275
Li -0.0555566124275 0.6944433875725 0.1944433875725
Li -0.0555566124275 0.6944433875725 0.4444433875725
Li -0.0555566124275 0.6944433875725 0.6944433875725
Li 0.1944433875725 -0.0555566124275 -0.0555566124275
Li 0.1944433875725 -0.0555566124275 0.1944433875725
Li 0.1944433875725 -0.0555566124275 0.4444433875725
Li 0.1944433875725 -0.0555566124275 0.6944433875725
Li 0.1944433875725 0.1944433875725 -0.0555566124275
Li 0.1944433875725 0.1944433875725 0.1944433875725
Li 0.1944433875725 0.1944433875725 0.4444433875725
Li 0.1944433875725 0.1944433875725 0.6944433875725
Li 0.1944433875725 0.4444433875725 -0.0555566124275
Li 0.1944433875725 0.4444433875725 0.1944433875725
Li 0.1944433875725 0.4444433875725 0.4444433875725
Li 0.1944433875725 0.4444433875725 0.6944433875725
Li 0.1944433875725 0.6944433875725 -0.0555566124275
Li 0.1944433875725 0.6944433875725 0.1944433875725
Li 0.1944433875725 0.6944433875725 0.4444433875725
Li 0.1944433875725 0.6944433875725 0.6944433875725
Li 0.4444433875725 -0.0555566124275 -0.0555566124275
Li 0.4444433875725 -0.0555566124275 0.1944433875725
Li 0.4444433875725 -0.0555566124275 0.4444433875725
Li 0.4444433875725 -0.0555566124275 0.6944433875725
Li 0.4444433875725 0.1944433875725 -0.0555566124275
Li 0.4444433875725 0.1944433875725 0.1944433875725
Li 0.4444433875725 0.1944433875725 0.4444433875725
Li 0.4444433875725 0.1944433875725 0.6944433875725
Li 0.4444433875725 0.4444433875725 -0.0555566124275
Li 0.4444433875725 0.4444433875725 0.1944433875725
Li 0.4444433875725 0.4444433875725 0.4444433875725
Li 0.4444433875725 0.4444433875725 0.6944433875725
Li 0.4444433875725 0.6944433875725 -0.0555566124275
Li 0.4444433875725 0.6944433875725 0.1944433875725
Li 0.4444433875725 0.6944433875725 0.4444433875725
Li 0.4444433875725 0.6944433875725 0.6944433875725
Li 0.6944433875725 -0.0555566124275 -0.0555566124275
Li 0.6944433875725 -0.0555566124275 0.1944433875725
Li 0.6944433875725 -0.0555566124275 0.4444433875725
Li 0.6944433875725 -0.0555566124275 0.6944433875725
Li 0.6944433875725 0.1944433875725 -0.0555566124275
Li 0.6944433875725 0.1944433875725 0.1944433875725
Li 0.6944433875725 0.1944433875725 0.4444433875725
Li 0.6944433875725 0.1944433875725 0.6944433875725
Li 0.6944433875725 0.4444433875725 -0.0555566124275
Li 0.6944433875725 0.4444433875725 0.1944433875725
Li 0.6944433875725 0.4444433875725 0.4444433875725
Li 0.6944433875725 0.4444433875725 0.6944433875725
Li 0.6944433875725 0.6944433875725 -0.0555566124275
Li 0.6944433875725 0.6944433875725 0.1944433875725
Li 0.6944433875725 0.6944433875725 0.4444433875725
Li 0.6944433875725 0.6944433875725 0.6944433875725
%END BLOCK POSITIONS_FRAC
%BLOCK SPECIES_POT
Li li.gga.recpot
%END BLOCK SPECIES_POT
