Li                                      
   1.00000000000000     
     3.3661655345595332    0.0000000000000000    0.0000000000000000
     0.0000000000000000    3.3661655345595332    0.0000000000000000
     0.0000000000000000    0.0000000000000000   20.1969932073571989
   Li
     7
Selective dynamics
Direct
  0.0000000000000000  0.0000000000000000  0.0000000000000000   F   F   F
  0.5000000000000000  0.5000000000000000  0.0833333333300033   F   F   F
  0.0000000000000000  0.0000000000000000  0.1666666666599994   F   F   F
  0.5000000000000000  0.5000000000000000  0.2508012321703342   T   T   T
  0.0000000000000000  0.0000000000000000  0.3345039896422918   T   T   T
  0.5000000000000000  0.5000000000000000  0.4164539271129999   T   T   T
  0.0000000000000000  0.0000000000000000  0.5048129976975242   T   T   T
 
  0.00000000E+00  0.00000000E+00  0.00000000E+00
  0.00000000E+00  0.00000000E+00  0.00000000E+00
  0.00000000E+00  0.00000000E+00  0.00000000E+00
  0.00000000E+00  0.00000000E+00  0.00000000E+00
  0.00000000E+00  0.00000000E+00  0.00000000E+00
  0.00000000E+00  0.00000000E+00  0.00000000E+00
  0.00000000E+00  0.00000000E+00  0.00000000E+00
