%BLOCK LATTICE_CART
14.2174 0 0
0 14.2174 0
0 0 42.657625
%END BLOCK LATTICE_CART
%BLOCK POSITIONS_FRAC
Li 0 0 0.1875397423086728
Li 0 0 0.2708624776930267
Li 0 0 0.3541852130773807
Li 0 0 0.4375079484617346
Li 0 0 0.5208306838460884
Li 0 0 0.6041534192304424
Li 0 0 0.6874761546147964
Li 0 0 0.7707988899991501
Li 0 0.25 0.1875397423086728
Li 0 0.25 0.2708624776930267
Li 0 0.25 0.3541852130773807
Li 0 0.25 0.4375079484617346
Li 0 0.25 0.5208306838460884
Li 0 0.25 0.6041534192304424
Li 0 0.25 0.6874761546147964
Li 0 0.25 0.7707988899991501
Li 0 0.4999999999999999 0.1875397423086728
Li 0 0.4999999999999999 0.2708624776930267
Li 0 0.4999999999999999 0.3541852130773807
Li 0 0.4999999999999999 0.4375079484617346
Li 0 0.4999999999999999 0.5208306838460884
Li 0 0.4999999999999999 0.6041534192304424
Li 0 0.4999999999999999 0.6874761546147964
Li 0 0.4999999999999999 0.7707988899991501
Li 0 0.75 0.1875397423086728
Li 0 0.75 0.2708624776930267
Li 0 0.75 0.3541852130773807
Li 0 0.75 0.4375079484617346
Li 0 0.75 0.5208306838460884
Li 0 0.75 0.6041534192304424
Li 0 0.75 0.6874761546147964
Li 0 0.75 0.7707988899991501
Li 0.25 0 0.1875397423086728
Li 0.25 0 0.2708624776930267
Li 0.25 0 0.3541852130773807
Li 0.25 0 0.4375079484617346
Li 0.25 0 0.5208306838460884
Li 0.25 0 0.6041534192304424
Li 0.25 0 0.6874761546147964
Li 0.25 0 0.7707988899991501
Li 0.25 0.25 0.1875397423086728
Li 0.25 0.25 0.2708624776930267
Li 0.25 0.25 0.3541852130773807
Li 0.25 0.25 0.4375079484617346
Li 0.25 0.25 0.5208306838460884
Li 0.25 0.25 0.6041534192304424
Li 0.25 0.25 0.6874761546147964
Li 0.25 0.25 0.7707988899991501
Li 0.25 0.4999999999999999 0.1875397423086728
Li 0.25 0.4999999999999999 0.2708624776930267
Li 0.25 0.4999999999999999 0.3541852130773807
Li 0.25 0.4999999999999999 0.4375079484617346
Li 0.25 0.4999999999999999 0.5208306838460884
Li 0.25 0.4999999999999999 0.6041534192304424
Li 0.25 0.4999999999999999 0.6874761546147964
Li 0.25 0.4999999999999999 0.7707988899991501
Li 0.25 0.75 0.1875397423086728
Li 0.25 0.75 0.2708624776930267
Li 0.25 0.75 0.3541852130773807
Li 0.25 0.75 0.4375079484617346
Li 0.25 0.75 0.5208306838460884
Li 0.25 0.75 0.6041534192304424
Li 0.25 0.75 0.6874761546147964
Li 0.25 0.75 0.7707988899991501
Li 0.4999999999999999 0 0.1875397423086728
Li 0.4999999999999999 0 0.2708624776930267
Li 0.4999999999999999 0 0.3541852130773807
Li 0.4999999999999999 0 0.4375079484617346
Li 0.4999999999999999 0 0.5208306838460884
Li 0.4999999999999999 0 0.6041534192304424
Li 0.4999999999999999 0 0.6874761546147964
Li 0.4999999999999999 0 0.7707988899991501
Li 0.4999999999999999 0.25 0.1875397423086728
Li 0.4999999999999999 0.25 0.2708624776930267
Li 0.4999999999999999 0.25 0.3541852130773807
Li 0.4999999999999999 0.25 0.4375079484617346
Li 0.4999999999999999 0.25 0.5208306838460884
Li 0.4999999999999999 0.25 0.6041534192304424
Li 0.4999999999999999 0.25 0.6874761546147964
Li 0.4999999999999999 0.25 0.7707988899991501
Li 0.4999999999999999 0.4999999999999999 0.1875397423086728
Li 0.4999999999999999 0.4999999999999999 0.2708624776930267
Li 0.4999999999999999 0.4999999999999999 0.3541852130773807
Li 0.4999999999999999 0.4999999999999999 0.4375079484617346
Li 0.4999999999999999 0.4999999999999999 0.5208306838460884
Li 0.4999999999999999 0.4999999999999999 0.6041534192304424
Li 0.4999999999999999 0.4999999999999999 0.6874761546147964
Li 0.4999999999999999 0.4999999999999999 0.7707988899991501
Li 0.4999999999999999 0.75 0.1875397423086728
Li 0.4999999999999999 0.75 0.2708624776930267
Li 0.4999999999999999 0.75 0.3541852130773807
Li 0.4999999999999999 0.75 0.4375079484617346
Li 0.4999999999999999 0.75 0.5208306838460884
Li 0.4999999999999999 0.75 0.6041534192304424
Li 0.4999999999999999 0.75 0.6874761546147964
Li 0.4999999999999999 0.75 0.7707988899991501
Li 0.75 0 0.1875397423086728
Li 0.75 0 0.2708624776930267
Li 0.75 0 0.3541852130773807
Li 0.75 0 0.4375079484617346
Li 0.75 0 0.5208306838460884
Li 0.75 0 0.6041534192304424
Li 0.75 0 0.6874761546147964
Li 0.75 0 0.7707988899991501
Li 0.75 0.25 0.1875397423086728
Li 0.75 0.25 0.2708624776930267
Li 0.75 0.25 0.3541852130773807
Li 0.75 0.25 0.4375079484617346
Li 0.75 0.25 0.5208306838460884
Li 0.75 0.25 0.6041534192304424
Li 0.75 0.25 0.6874761546147964
Li 0.75 0.25 0.7707988899991501
Li 0.75 0.4999999999999999 0.1875397423086728
Li 0.75 0.4999999999999999 0.2708624776930267
Li 0.75 0.4999999999999999 0.3541852130773807
Li 0.75 0.4999999999999999 0.4375079484617346
Li 0.75 0.4999999999999999 0.5208306838460884
Li 0.75 0.4999999999999999 0.6041534192304424
Li 0.75 0.4999999999999999 0.6874761546147964
Li 0.75 0.4999999999999999 0.7707988899991501
Li 0.75 0.75 0.1875397423086728
Li 0.75 0.75 0.2708624776930267
Li 0.75 0.75 0.3541852130773807
Li 0.75 0.75 0.4375079484617346
Li 0.75 0.75 0.5208306838460884
Li 0.75 0.75 0.6041534192304424
Li 0.75 0.75 0.6874761546147964
Li 0.75 0.75 0.7707988899991501
Li 0.125 0.125 0.2292011100008498
Li 0.125 0.125 0.3125238453852037
Li 0.125 0.125 0.3958465807695576
Li 0.125 0.125 0.4791693161539115
Li 0.125 0.125 0.5624920515382654
Li 0.125 0.125 0.6458147869226194
Li 0.125 0.125 0.7291375223069733
Li 0.125 0.125 0.8124602576913271
Li 0.125 0.375 0.2292011100008498
Li 0.125 0.375 0.3125238453852037
Li 0.125 0.375 0.3958465807695576
Li 0.125 0.375 0.4791693161539115
Li 0.125 0.375 0.5624920515382654
Li 0.125 0.375 0.6458147869226194
Li 0.125 0.375 0.7291375223069733
Li 0.125 0.375 0.8124602576913271
Li 0.125 0.625 0.2292011100008498
Li 0.125 0.625 0.3125238453852037
Li 0.125 0.625 0.3958465807695576
Li 0.125 0.625 0.4791693161539115
Li 0.125 0.625 0.5624920515382654
Li 0.125 0.625 0.6458147869226194
Li 0.125 0.625 0.7291375223069733
Li 0.125 0.625 0.8124602576913271
Li 0.125 0.8749999999999999 0.2292011100008498
Li 0.125 0.8749999999999999 0.3125238453852037
Li 0.125 0.8749999999999999 0.3958465807695576
Li 0.125 0.8749999999999999 0.4791693161539115
Li 0.125 0.8749999999999999 0.5624920515382654
Li 0.125 0.8749999999999999 0.6458147869226194
Li 0.125 0.8749999999999999 0.7291375223069733
Li 0.125 0.8749999999999999 0.8124602576913271
Li 0.375 0.125 0.2292011100008498
Li 0.375 0.125 0.3125238453852037
Li 0.375 0.125 0.3958465807695576
Li 0.375 0.125 0.4791693161539115
Li 0.375 0.125 0.5624920515382654
Li 0.375 0.125 0.6458147869226194
Li 0.375 0.125 0.7291375223069733
Li 0.375 0.125 0.8124602576913271
Li 0.375 0.375 0.2292011100008498
Li 0.375 0.375 0.3125238453852037
Li 0.375 0.375 0.3958465807695576
Li 0.375 0.375 0.4791693161539115
Li 0.375 0.375 0.5624920515382654
Li 0.375 0.375 0.6458147869226194
Li 0.375 0.375 0.7291375223069733
Li 0.375 0.375 0.8124602576913271
Li 0.375 0.625 0.2292011100008498
Li 0.375 0.625 0.3125238453852037
Li 0.375 0.625 0.3958465807695576
Li 0.375 0.625 0.4791693161539115
Li 0.375 0.625 0.5624920515382654
Li 0.375 0.625 0.6458147869226194
Li 0.375 0.625 0.7291375223069733
Li 0.375 0.625 0.8124602576913271
Li 0.375 0.8749999999999999 0.2292011100008498
Li 0.375 0.8749999999999999 0.3125238453852037
Li 0.375 0.8749999999999999 0.3958465807695576
Li 0.375 0.8749999999999999 0.4791693161539115
Li 0.375 0.8749999999999999 0.5624920515382654
Li 0.375 0.8749999999999999 0.6458147869226194
Li 0.375 0.8749999999999999 0.7291375223069733
Li 0.375 0.8749999999999999 0.8124602576913271
Li 0.625 0.125 0.2292011100008498
Li 0.625 0.125 0.3125238453852037
Li 0.625 0.125 0.3958465807695576
Li 0.625 0.125 0.4791693161539115
Li 0.625 0.125 0.5624920515382654
Li 0.625 0.125 0.6458147869226194
Li 0.625 0.125 0.7291375223069733
Li 0.625 0.125 0.8124602576913271
Li 0.625 0.375 0.2292011100008498
Li 0.625 0.375 0.3125238453852037
Li 0.625 0.375 0.3958465807695576
Li 0.625 0.375 0.4791693161539115
Li 0.625 0.375 0.5624920515382654
Li 0.625 0.375 0.6458147869226194
Li 0.625 0.375 0.7291375223069733
Li 0.625 0.375 0.8124602576913271
Li 0.625 0.625 0.2292011100008498
Li 0.625 0.625 0.3125238453852037
Li 0.625 0.625 0.3958465807695576
Li 0.625 0.625 0.4791693161539115
Li 0.625 0.625 0.5624920515382654
Li 0.625 0.625 0.6458147869226194
Li 0.625 0.625 0.7291375223069733
Li 0.625 0.625 0.8124602576913271
Li 0.625 0.8749999999999999 0.2292011100008498
Li 0.625 0.8749999999999999 0.3125238453852037
Li 0.625 0.8749999999999999 0.3958465807695576
Li 0.625 0.8749999999999999 0.4791693161539115
Li 0.625 0.8749999999999999 0.5624920515382654
Li 0.625 0.8749999999999999 0.6458147869226194
Li 0.625 0.8749999999999999 0.7291375223069733
Li 0.625 0.8749999999999999 0.8124602576913271
Li 0.8749999999999999 0.125 0.2292011100008498
Li 0.8749999999999999 0.125 0.3125238453852037
Li 0.8749999999999999 0.125 0.3958465807695576
Li 0.8749999999999999 0.125 0.4791693161539115
Li 0.8749999999999999 0.125 0.5624920515382654
Li 0.8749999999999999 0.125 0.6458147869226194
Li 0.8749999999999999 0.125 0.7291375223069733
Li 0.8749999999999999 0.125 0.8124602576913271
Li 0.8749999999999999 0.375 0.2292011100008498
Li 0.8749999999999999 0.375 0.3125238453852037
Li 0.8749999999999999 0.375 0.3958465807695576
Li 0.8749999999999999 0.375 0.4791693161539115
Li 0.8749999999999999 0.375 0.5624920515382654
Li 0.8749999999999999 0.375 0.6458147869226194
Li 0.8749999999999999 0.375 0.7291375223069733
Li 0.8749999999999999 0.375 0.8124602576913271
Li 0.8749999999999999 0.625 0.2292011100008498
Li 0.8749999999999999 0.625 0.3125238453852037
Li 0.8749999999999999 0.625 0.3958465807695576
Li 0.8749999999999999 0.625 0.4791693161539115
Li 0.8749999999999999 0.625 0.5624920515382654
Li 0.8749999999999999 0.625 0.6458147869226194
Li 0.8749999999999999 0.625 0.7291375223069733
Li 0.8749999999999999 0.625 0.8124602576913271
Li 0.8749999999999999 0.8749999999999999 0.2292011100008498
Li 0.8749999999999999 0.8749999999999999 0.3125238453852037
Li 0.8749999999999999 0.8749999999999999 0.3958465807695576
Li 0.8749999999999999 0.8749999999999999 0.4791693161539115
Li 0.8749999999999999 0.8749999999999999 0.5624920515382654
Li 0.8749999999999999 0.8749999999999999 0.6458147869226194
Li 0.8749999999999999 0.8749999999999999 0.7291375223069733
Li 0.8749999999999999 0.8749999999999999 0.8124602576913271
%END BLOCK POSITIONS_FRAC
%BLOCK SPECIES_POT
Li li.gga.recpot
%END BLOCK SPECIES_POT
