%BLOCK LATTICE_CART
13.568 0 0
0 13.568 0
0 0 41.44
%END BLOCK LATTICE_CART
%BLOCK POSITIONS_FRAC
Li 0 0 0.1930501930501931
Li 0 0 0.2749034749034749
Li 0 0 0.3567567567567567
Li 0 0 0.4386100386100387
Li 0 0 0.5204633204633204
Li 0 0 0.6023166023166023
Li 0 0 0.6841698841698842
Li 0 0 0.766023166023166
Li 0 0.25 0.1930501930501931
Li 0 0.25 0.2749034749034749
Li 0 0.25 0.3567567567567567
Li 0 0.25 0.4386100386100387
Li 0 0.25 0.5204633204633204
Li 0 0.25 0.6023166023166023
Li 0 0.25 0.6841698841698842
Li 0 0.25 0.766023166023166
Li 0 0.4999999999999999 0.1930501930501931
Li 0 0.4999999999999999 0.2749034749034749
Li 0 0.4999999999999999 0.3567567567567567
Li 0 0.4999999999999999 0.4386100386100387
Li 0 0.4999999999999999 0.5204633204633204
Li 0 0.4999999999999999 0.6023166023166023
Li 0 0.4999999999999999 0.6841698841698842
Li 0 0.4999999999999999 0.766023166023166
Li 0 0.7499999999999999 0.1930501930501931
Li 0 0.7499999999999999 0.2749034749034749
Li 0 0.7499999999999999 0.3567567567567567
Li 0 0.7499999999999999 0.4386100386100387
Li 0 0.7499999999999999 0.5204633204633204
Li 0 0.7499999999999999 0.6023166023166023
Li 0 0.7499999999999999 0.6841698841698842
Li 0 0.7499999999999999 0.766023166023166
Li 0.25 0 0.1930501930501931
Li 0.25 0 0.2749034749034749
Li 0.25 0 0.3567567567567567
Li 0.25 0 0.4386100386100387
Li 0.25 0 0.5204633204633204
Li 0.25 0 0.6023166023166023
Li 0.25 0 0.6841698841698842
Li 0.25 0 0.766023166023166
Li 0.25 0.25 0.1930501930501931
Li 0.25 0.25 0.2749034749034749
Li 0.25 0.25 0.3567567567567567
Li 0.25 0.25 0.4386100386100387
Li 0.25 0.25 0.5204633204633204
Li 0.25 0.25 0.6023166023166023
Li 0.25 0.25 0.6841698841698842
Li 0.25 0.25 0.766023166023166
Li 0.25 0.4999999999999999 0.1930501930501931
Li 0.25 0.4999999999999999 0.2749034749034749
Li 0.25 0.4999999999999999 0.3567567567567567
Li 0.25 0.4999999999999999 0.4386100386100387
Li 0.25 0.4999999999999999 0.5204633204633204
Li 0.25 0.4999999999999999 0.6023166023166023
Li 0.25 0.4999999999999999 0.6841698841698842
Li 0.25 0.4999999999999999 0.766023166023166
Li 0.25 0.7499999999999999 0.1930501930501931
Li 0.25 0.7499999999999999 0.2749034749034749
Li 0.25 0.7499999999999999 0.3567567567567567
Li 0.25 0.7499999999999999 0.4386100386100387
Li 0.25 0.7499999999999999 0.5204633204633204
Li 0.25 0.7499999999999999 0.6023166023166023
Li 0.25 0.7499999999999999 0.6841698841698842
Li 0.25 0.7499999999999999 0.766023166023166
Li 0.4999999999999999 0 0.1930501930501931
Li 0.4999999999999999 0 0.2749034749034749
Li 0.4999999999999999 0 0.3567567567567567
Li 0.4999999999999999 0 0.4386100386100387
Li 0.4999999999999999 0 0.5204633204633204
Li 0.4999999999999999 0 0.6023166023166023
Li 0.4999999999999999 0 0.6841698841698842
Li 0.4999999999999999 0 0.766023166023166
Li 0.4999999999999999 0.25 0.1930501930501931
Li 0.4999999999999999 0.25 0.2749034749034749
Li 0.4999999999999999 0.25 0.3567567567567567
Li 0.4999999999999999 0.25 0.4386100386100387
Li 0.4999999999999999 0.25 0.5204633204633204
Li 0.4999999999999999 0.25 0.6023166023166023
Li 0.4999999999999999 0.25 0.6841698841698842
Li 0.4999999999999999 0.25 0.766023166023166
Li 0.4999999999999999 0.4999999999999999 0.1930501930501931
Li 0.4999999999999999 0.4999999999999999 0.2749034749034749
Li 0.4999999999999999 0.4999999999999999 0.3567567567567567
Li 0.4999999999999999 0.4999999999999999 0.4386100386100387
Li 0.4999999999999999 0.4999999999999999 0.5204633204633204
Li 0.4999999999999999 0.4999999999999999 0.6023166023166023
Li 0.4999999999999999 0.4999999999999999 0.6841698841698842
Li 0.4999999999999999 0.4999999999999999 0.766023166023166
Li 0.4999999999999999 0.7499999999999999 0.1930501930501931
Li 0.4999999999999999 0.7499999999999999 0.2749034749034749
Li 0.4999999999999999 0.7499999999999999 0.3567567567567567
Li 0.4999999999999999 0.7499999999999999 0.4386100386100387
Li 0.4999999999999999 0.7499999999999999 0.5204633204633204
Li 0.4999999999999999 0.7499999999999999 0.6023166023166023
Li 0.4999999999999999 0.7499999999999999 0.6841698841698842
Li 0.4999999999999999 0.7499999999999999 0.766023166023166
Li 0.7499999999999999 0 0.1930501930501931
Li 0.7499999999999999 0 0.2749034749034749
Li 0.7499999999999999 0 0.3567567567567567
Li 0.7499999999999999 0 0.4386100386100387
Li 0.7499999999999999 0 0.5204633204633204
Li 0.7499999999999999 0 0.6023166023166023
Li 0.7499999999999999 0 0.6841698841698842
Li 0.7499999999999999 0 0.766023166023166
Li 0.7499999999999999 0.25 0.1930501930501931
Li 0.7499999999999999 0.25 0.2749034749034749
Li 0.7499999999999999 0.25 0.3567567567567567
Li 0.7499999999999999 0.25 0.4386100386100387
Li 0.7499999999999999 0.25 0.5204633204633204
Li 0.7499999999999999 0.25 0.6023166023166023
Li 0.7499999999999999 0.25 0.6841698841698842
Li 0.7499999999999999 0.25 0.766023166023166
Li 0.7499999999999999 0.4999999999999999 0.1930501930501931
Li 0.7499999999999999 0.4999999999999999 0.2749034749034749
Li 0.7499999999999999 0.4999999999999999 0.3567567567567567
Li 0.7499999999999999 0.4999999999999999 0.4386100386100387
Li 0.7499999999999999 0.4999999999999999 0.5204633204633204
Li 0.7499999999999999 0.4999999999999999 0.6023166023166023
Li 0.7499999999999999 0.4999999999999999 0.6841698841698842
Li 0.7499999999999999 0.4999999999999999 0.766023166023166
Li 0.7499999999999999 0.7499999999999999 0.1930501930501931
Li 0.7499999999999999 0.7499999999999999 0.2749034749034749
Li 0.7499999999999999 0.7499999999999999 0.3567567567567567
Li 0.7499999999999999 0.7499999999999999 0.4386100386100387
Li 0.7499999999999999 0.7499999999999999 0.5204633204633204
Li 0.7499999999999999 0.7499999999999999 0.6023166023166023
Li 0.7499999999999999 0.7499999999999999 0.6841698841698842
Li 0.7499999999999999 0.7499999999999999 0.766023166023166
Li 0.125 0.125 0.233976833976834
Li 0.125 0.125 0.3158301158301158
Li 0.125 0.125 0.3976833976833977
Li 0.125 0.125 0.4795366795366796
Li 0.125 0.125 0.5613899613899613
Li 0.125 0.125 0.6432432432432432
Li 0.125 0.125 0.7250965250965251
Li 0.125 0.125 0.8069498069498069
Li 0.125 0.3749999999999999 0.233976833976834
Li 0.125 0.3749999999999999 0.3158301158301158
Li 0.125 0.3749999999999999 0.3976833976833977
Li 0.125 0.3749999999999999 0.4795366795366796
Li 0.125 0.3749999999999999 0.5613899613899613
Li 0.125 0.3749999999999999 0.6432432432432432
Li 0.125 0.3749999999999999 0.7250965250965251
Li 0.125 0.3749999999999999 0.8069498069498069
Li 0.125 0.625 0.233976833976834
Li 0.125 0.625 0.3158301158301158
Li 0.125 0.625 0.3976833976833977
Li 0.125 0.625 0.4795366795366796
Li 0.125 0.625 0.5613899613899613
Li 0.125 0.625 0.6432432432432432
Li 0.125 0.625 0.7250965250965251
Li 0.125 0.625 0.8069498069498069
Li 0.125 0.8749999999999999 0.233976833976834
Li 0.125 0.8749999999999999 0.3158301158301158
Li 0.125 0.8749999999999999 0.3976833976833977
Li 0.125 0.8749999999999999 0.4795366795366796
Li 0.125 0.8749999999999999 0.5613899613899613
Li 0.125 0.8749999999999999 0.6432432432432432
Li 0.125 0.8749999999999999 0.7250965250965251
Li 0.125 0.8749999999999999 0.8069498069498069
Li 0.3749999999999999 0.125 0.233976833976834
Li 0.3749999999999999 0.125 0.3158301158301158
Li 0.3749999999999999 0.125 0.3976833976833977
Li 0.3749999999999999 0.125 0.4795366795366796
Li 0.3749999999999999 0.125 0.5613899613899613
Li 0.3749999999999999 0.125 0.6432432432432432
Li 0.3749999999999999 0.125 0.7250965250965251
Li 0.3749999999999999 0.125 0.8069498069498069
Li 0.3749999999999999 0.3749999999999999 0.233976833976834
Li 0.3749999999999999 0.3749999999999999 0.3158301158301158
Li 0.3749999999999999 0.3749999999999999 0.3976833976833977
Li 0.3749999999999999 0.3749999999999999 0.4795366795366796
Li 0.3749999999999999 0.3749999999999999 0.5613899613899613
Li 0.3749999999999999 0.3749999999999999 0.6432432432432432
Li 0.3749999999999999 0.3749999999999999 0.7250965250965251
Li 0.3749999999999999 0.3749999999999999 0.8069498069498069
Li 0.3749999999999999 0.625 0.233976833976834
Li 0.3749999999999999 0.625 0.3158301158301158
Li 0.3749999999999999 0.625 0.3976833976833977
Li 0.3749999999999999 0.625 0.4795366795366796
Li 0.3749999999999999 0.625 0.5613899613899613
Li 0.3749999999999999 0.625 0.6432432432432432
Li 0.3749999999999999 0.625 0.7250965250965251
Li 0.3749999999999999 0.625 0.8069498069498069
Li 0.3749999999999999 0.8749999999999999 0.233976833976834
Li 0.3749999999999999 0.8749999999999999 0.3158301158301158
Li 0.3749999999999999 0.8749999999999999 0.3976833976833977
Li 0.3749999999999999 0.8749999999999999 0.4795366795366796
Li 0.3749999999999999 0.8749999999999999 0.5613899613899613
Li 0.3749999999999999 0.8749999999999999 0.6432432432432432
Li 0.3749999999999999 0.8749999999999999 0.7250965250965251
Li 0.3749999999999999 0.8749999999999999 0.8069498069498069
Li 0.625 0.125 0.233976833976834
Li 0.625 0.125 0.3158301158301158
Li 0.625 0.125 0.3976833976833977
Li 0.625 0.125 0.4795366795366796
Li 0.625 0.125 0.5613899613899613
Li 0.625 0.125 0.6432432432432432
Li 0.625 0.125 0.7250965250965251
Li 0.625 0.125 0.8069498069498069
Li 0.625 0.3749999999999999 0.233976833976834
Li 0.625 0.3749999999999999 0.3158301158301158
Li 0.625 0.3749999999999999 0.3976833976833977
Li 0.625 0.3749999999999999 0.4795366795366796
Li 0.625 0.3749999999999999 0.5613899613899613
Li 0.625 0.3749999999999999 0.6432432432432432
Li 0.625 0.3749999999999999 0.7250965250965251
Li 0.625 0.3749999999999999 0.8069498069498069
Li 0.625 0.625 0.233976833976834
Li 0.625 0.625 0.3158301158301158
Li 0.625 0.625 0.3976833976833977
Li 0.625 0.625 0.4795366795366796
Li 0.625 0.625 0.5613899613899613
Li 0.625 0.625 0.6432432432432432
Li 0.625 0.625 0.7250965250965251
Li 0.625 0.625 0.8069498069498069
Li 0.625 0.8749999999999999 0.233976833976834
Li 0.625 0.8749999999999999 0.3158301158301158
Li 0.625 0.8749999999999999 0.3976833976833977
Li 0.625 0.8749999999999999 0.4795366795366796
Li 0.625 0.8749999999999999 0.5613899613899613
Li 0.625 0.8749999999999999 0.6432432432432432
Li 0.625 0.8749999999999999 0.7250965250965251
Li 0.625 0.8749999999999999 0.8069498069498069
Li 0.8749999999999999 0.125 0.233976833976834
Li 0.8749999999999999 0.125 0.3158301158301158
Li 0.8749999999999999 0.125 0.3976833976833977
Li 0.8749999999999999 0.125 0.4795366795366796
Li 0.8749999999999999 0.125 0.5613899613899613
Li 0.8749999999999999 0.125 0.6432432432432432
Li 0.8749999999999999 0.125 0.7250965250965251
Li 0.8749999999999999 0.125 0.8069498069498069
Li 0.8749999999999999 0.3749999999999999 0.233976833976834
Li 0.8749999999999999 0.3749999999999999 0.3158301158301158
Li 0.8749999999999999 0.3749999999999999 0.3976833976833977
Li 0.8749999999999999 0.3749999999999999 0.4795366795366796
Li 0.8749999999999999 0.3749999999999999 0.5613899613899613
Li 0.8749999999999999 0.3749999999999999 0.6432432432432432
Li 0.8749999999999999 0.3749999999999999 0.7250965250965251
Li 0.8749999999999999 0.3749999999999999 0.8069498069498069
Li 0.8749999999999999 0.625 0.233976833976834
Li 0.8749999999999999 0.625 0.3158301158301158
Li 0.8749999999999999 0.625 0.3976833976833977
Li 0.8749999999999999 0.625 0.4795366795366796
Li 0.8749999999999999 0.625 0.5613899613899613
Li 0.8749999999999999 0.625 0.6432432432432432
Li 0.8749999999999999 0.625 0.7250965250965251
Li 0.8749999999999999 0.625 0.8069498069498069
Li 0.8749999999999999 0.8749999999999999 0.233976833976834
Li 0.8749999999999999 0.8749999999999999 0.3158301158301158
Li 0.8749999999999999 0.8749999999999999 0.3976833976833977
Li 0.8749999999999999 0.8749999999999999 0.4795366795366796
Li 0.8749999999999999 0.8749999999999999 0.5613899613899613
Li 0.8749999999999999 0.8749999999999999 0.6432432432432432
Li 0.8749999999999999 0.8749999999999999 0.7250965250965251
Li 0.8749999999999999 0.8749999999999999 0.8069498069498069
%END BLOCK POSITIONS_FRAC
%BLOCK SPECIES_POT
Li li.gga.recpot
%END BLOCK SPECIES_POT
