%BLOCK LATTICE_CART
27.136 0 0
0 27.136 0
0 0 68.57599999999999
%END BLOCK LATTICE_CART
%BLOCK POSITIONS_FRAC
Li 0 0 0.1166588894073728
Li 0 0 0.1661222585160989
Li 0 0 0.215585627624825
Li 0 0 0.2650489967335511
Li 0 0 0.3145123658422772
Li 0 0 0.3639757349510033
Li 0 0 0.4134391040597294
Li 0 0 0.4629024731684555
Li 0 0 0.5123658422771815
Li 0 0 0.5618292113859076
Li 0 0 0.6112925804946338
Li 0 0 0.6607559496033598
Li 0 0 0.7102193187120859
Li 0 0 0.7596826878208119
Li 0 0 0.809146056929538
Li 0 0 0.8586094260382641
Li 0 0.125 0.1166588894073728
Li 0 0.125 0.1661222585160989
Li 0 0.125 0.215585627624825
Li 0 0.125 0.2650489967335511
Li 0 0.125 0.3145123658422772
Li 0 0.125 0.3639757349510033
Li 0 0.125 0.4134391040597294
Li 0 0.125 0.4629024731684555
Li 0 0.125 0.5123658422771815
Li 0 0.125 0.5618292113859076
Li 0 0.125 0.6112925804946338
Li 0 0.125 0.6607559496033598
Li 0 0.125 0.7102193187120859
Li 0 0.125 0.7596826878208119
Li 0 0.125 0.809146056929538
Li 0 0.125 0.8586094260382641
Li 0 0.25 0.1166588894073728
Li 0 0.25 0.1661222585160989
Li 0 0.25 0.215585627624825
Li 0 0.25 0.2650489967335511
Li 0 0.25 0.3145123658422772
Li 0 0.25 0.3639757349510033
Li 0 0.25 0.4134391040597294
Li 0 0.25 0.4629024731684555
Li 0 0.25 0.5123658422771815
Li 0 0.25 0.5618292113859076
Li 0 0.25 0.6112925804946338
Li 0 0.25 0.6607559496033598
Li 0 0.25 0.7102193187120859
Li 0 0.25 0.7596826878208119
Li 0 0.25 0.809146056929538
Li 0 0.25 0.8586094260382641
Li 0 0.3750000000000001 0.1166588894073728
Li 0 0.3750000000000001 0.1661222585160989
Li 0 0.3750000000000001 0.215585627624825
Li 0 0.3750000000000001 0.2650489967335511
Li 0 0.3750000000000001 0.3145123658422772
Li 0 0.3750000000000001 0.3639757349510033
Li 0 0.3750000000000001 0.4134391040597294
Li 0 0.3750000000000001 0.4629024731684555
Li 0 0.3750000000000001 0.5123658422771815
Li 0 0.3750000000000001 0.5618292113859076
Li 0 0.3750000000000001 0.6112925804946338
Li 0 0.3750000000000001 0.6607559496033598
Li 0 0.3750000000000001 0.7102193187120859
Li 0 0.3750000000000001 0.7596826878208119
Li 0 0.3750000000000001 0.809146056929538
Li 0 0.3750000000000001 0.8586094260382641
Li 0 0.5 0.1166588894073728
Li 0 0.5 0.1661222585160989
Li 0 0.5 0.215585627624825
Li 0 0.5 0.2650489967335511
Li 0 0.5 0.3145123658422772
Li 0 0.5 0.3639757349510033
Li 0 0.5 0.4134391040597294
Li 0 0.5 0.4629024731684555
Li 0 0.5 0.5123658422771815
Li 0 0.5 0.5618292113859076
Li 0 0.5 0.6112925804946338
Li 0 0.5 0.6607559496033598
Li 0 0.5 0.7102193187120859
Li 0 0.5 0.7596826878208119
Li 0 0.5 0.809146056929538
Li 0 0.5 0.8586094260382641
Li 0 0.6250000000000001 0.1166588894073728
Li 0 0.6250000000000001 0.1661222585160989
Li 0 0.6250000000000001 0.215585627624825
Li 0 0.6250000000000001 0.2650489967335511
Li 0 0.6250000000000001 0.3145123658422772
Li 0 0.6250000000000001 0.3639757349510033
Li 0 0.6250000000000001 0.4134391040597294
Li 0 0.6250000000000001 0.4629024731684555
Li 0 0.6250000000000001 0.5123658422771815
Li 0 0.6250000000000001 0.5618292113859076
Li 0 0.6250000000000001 0.6112925804946338
Li 0 0.6250000000000001 0.6607559496033598
Li 0 0.6250000000000001 0.7102193187120859
Li 0 0.6250000000000001 0.7596826878208119
Li 0 0.6250000000000001 0.809146056929538
Li 0 0.6250000000000001 0.8586094260382641
Li 0 0.7500000000000001 0.1166588894073728
Li 0 0.7500000000000001 0.1661222585160989
Li 0 0.7500000000000001 0.215585627624825
Li 0 0.7500000000000001 0.2650489967335511
Li 0 0.7500000000000001 0.3145123658422772
Li 0 0.7500000000000001 0.3639757349510033
Li 0 0.7500000000000001 0.4134391040597294
Li 0 0.7500000000000001 0.4629024731684555
Li 0 0.7500000000000001 0.5123658422771815
Li 0 0.7500000000000001 0.5618292113859076
Li 0 0.7500000000000001 0.6112925804946338
Li 0 0.7500000000000001 0.6607559496033598
Li 0 0.7500000000000001 0.7102193187120859
Li 0 0.7500000000000001 0.7596826878208119
Li 0 0.7500000000000001 0.809146056929538
Li 0 0.7500000000000001 0.8586094260382641
Li 0 0.875 0.1166588894073728
Li 0 0.875 0.1661222585160989
Li 0 0.875 0.215585627624825
Li 0 0.875 0.2650489967335511
Li 0 0.875 0.3145123658422772
Li 0 0.875 0.3639757349510033
Li 0 0.875 0.4134391040597294
Li 0 0.875 0.4629024731684555
Li 0 0.875 0.5123658422771815
Li 0 0.875 0.5618292113859076
Li 0 0.875 0.6112925804946338
Li 0 0.875 0.6607559496033598
Li 0 0.875 0.7102193187120859
Li 0 0.875 0.7596826878208119
Li 0 0.875 0.809146056929538
Li 0 0.875 0.8586094260382641
Li 0.125 0 0.1166588894073728
Li 0.125 0 0.1661222585160989
Li 0.125 0 0.215585627624825
Li 0.125 0 0.2650489967335511
Li 0.125 0 0.3145123658422772
Li 0.125 0 0.3639757349510033
Li 0.125 0 0.4134391040597294
Li 0.125 0 0.4629024731684555
Li 0.125 0 0.5123658422771815
Li 0.125 0 0.5618292113859076
Li 0.125 0 0.6112925804946338
Li 0.125 0 0.6607559496033598
Li 0.125 0 0.7102193187120859
Li 0.125 0 0.7596826878208119
Li 0.125 0 0.809146056929538
Li 0.125 0 0.8586094260382641
Li 0.125 0.125 0.1166588894073728
Li 0.125 0.125 0.1661222585160989
Li 0.125 0.125 0.215585627624825
Li 0.125 0.125 0.2650489967335511
Li 0.125 0.125 0.3145123658422772
Li 0.125 0.125 0.3639757349510033
Li 0.125 0.125 0.4134391040597294
Li 0.125 0.125 0.4629024731684555
Li 0.125 0.125 0.5123658422771815
Li 0.125 0.125 0.5618292113859076
Li 0.125 0.125 0.6112925804946338
Li 0.125 0.125 0.6607559496033598
Li 0.125 0.125 0.7102193187120859
Li 0.125 0.125 0.7596826878208119
Li 0.125 0.125 0.809146056929538
Li 0.125 0.125 0.8586094260382641
Li 0.125 0.25 0.1166588894073728
Li 0.125 0.25 0.1661222585160989
Li 0.125 0.25 0.215585627624825
Li 0.125 0.25 0.2650489967335511
Li 0.125 0.25 0.3145123658422772
Li 0.125 0.25 0.3639757349510033
Li 0.125 0.25 0.4134391040597294
Li 0.125 0.25 0.4629024731684555
Li 0.125 0.25 0.5123658422771815
Li 0.125 0.25 0.5618292113859076
Li 0.125 0.25 0.6112925804946338
Li 0.125 0.25 0.6607559496033598
Li 0.125 0.25 0.7102193187120859
Li 0.125 0.25 0.7596826878208119
Li 0.125 0.25 0.809146056929538
Li 0.125 0.25 0.8586094260382641
Li 0.125 0.3750000000000001 0.1166588894073728
Li 0.125 0.3750000000000001 0.1661222585160989
Li 0.125 0.3750000000000001 0.215585627624825
Li 0.125 0.3750000000000001 0.2650489967335511
Li 0.125 0.3750000000000001 0.3145123658422772
Li 0.125 0.3750000000000001 0.3639757349510033
Li 0.125 0.3750000000000001 0.4134391040597294
Li 0.125 0.3750000000000001 0.4629024731684555
Li 0.125 0.3750000000000001 0.5123658422771815
Li 0.125 0.3750000000000001 0.5618292113859076
Li 0.125 0.3750000000000001 0.6112925804946338
Li 0.125 0.3750000000000001 0.6607559496033598
Li 0.125 0.3750000000000001 0.7102193187120859
Li 0.125 0.3750000000000001 0.7596826878208119
Li 0.125 0.3750000000000001 0.809146056929538
Li 0.125 0.3750000000000001 0.8586094260382641
Li 0.125 0.5 0.1166588894073728
Li 0.125 0.5 0.1661222585160989
Li 0.125 0.5 0.215585627624825
Li 0.125 0.5 0.2650489967335511
Li 0.125 0.5 0.3145123658422772
Li 0.125 0.5 0.3639757349510033
Li 0.125 0.5 0.4134391040597294
Li 0.125 0.5 0.4629024731684555
Li 0.125 0.5 0.5123658422771815
Li 0.125 0.5 0.5618292113859076
Li 0.125 0.5 0.6112925804946338
Li 0.125 0.5 0.6607559496033598
Li 0.125 0.5 0.7102193187120859
Li 0.125 0.5 0.7596826878208119
Li 0.125 0.5 0.809146056929538
Li 0.125 0.5 0.8586094260382641
Li 0.125 0.6250000000000001 0.1166588894073728
Li 0.125 0.6250000000000001 0.1661222585160989
Li 0.125 0.6250000000000001 0.215585627624825
Li 0.125 0.6250000000000001 0.2650489967335511
Li 0.125 0.6250000000000001 0.3145123658422772
Li 0.125 0.6250000000000001 0.3639757349510033
Li 0.125 0.6250000000000001 0.4134391040597294
Li 0.125 0.6250000000000001 0.4629024731684555
Li 0.125 0.6250000000000001 0.5123658422771815
Li 0.125 0.6250000000000001 0.5618292113859076
Li 0.125 0.6250000000000001 0.6112925804946338
Li 0.125 0.6250000000000001 0.6607559496033598
Li 0.125 0.6250000000000001 0.7102193187120859
Li 0.125 0.6250000000000001 0.7596826878208119
Li 0.125 0.6250000000000001 0.809146056929538
Li 0.125 0.6250000000000001 0.8586094260382641
Li 0.125 0.7500000000000001 0.1166588894073728
Li 0.125 0.7500000000000001 0.1661222585160989
Li 0.125 0.7500000000000001 0.215585627624825
Li 0.125 0.7500000000000001 0.2650489967335511
Li 0.125 0.7500000000000001 0.3145123658422772
Li 0.125 0.7500000000000001 0.3639757349510033
Li 0.125 0.7500000000000001 0.4134391040597294
Li 0.125 0.7500000000000001 0.4629024731684555
Li 0.125 0.7500000000000001 0.5123658422771815
Li 0.125 0.7500000000000001 0.5618292113859076
Li 0.125 0.7500000000000001 0.6112925804946338
Li 0.125 0.7500000000000001 0.6607559496033598
Li 0.125 0.7500000000000001 0.7102193187120859
Li 0.125 0.7500000000000001 0.7596826878208119
Li 0.125 0.7500000000000001 0.809146056929538
Li 0.125 0.7500000000000001 0.8586094260382641
Li 0.125 0.875 0.1166588894073728
Li 0.125 0.875 0.1661222585160989
Li 0.125 0.875 0.215585627624825
Li 0.125 0.875 0.2650489967335511
Li 0.125 0.875 0.3145123658422772
Li 0.125 0.875 0.3639757349510033
Li 0.125 0.875 0.4134391040597294
Li 0.125 0.875 0.4629024731684555
Li 0.125 0.875 0.5123658422771815
Li 0.125 0.875 0.5618292113859076
Li 0.125 0.875 0.6112925804946338
Li 0.125 0.875 0.6607559496033598
Li 0.125 0.875 0.7102193187120859
Li 0.125 0.875 0.7596826878208119
Li 0.125 0.875 0.809146056929538
Li 0.125 0.875 0.8586094260382641
Li 0.25 0 0.1166588894073728
Li 0.25 0 0.1661222585160989
Li 0.25 0 0.215585627624825
Li 0.25 0 0.2650489967335511
Li 0.25 0 0.3145123658422772
Li 0.25 0 0.3639757349510033
Li 0.25 0 0.4134391040597294
Li 0.25 0 0.4629024731684555
Li 0.25 0 0.5123658422771815
Li 0.25 0 0.5618292113859076
Li 0.25 0 0.6112925804946338
Li 0.25 0 0.6607559496033598
Li 0.25 0 0.7102193187120859
Li 0.25 0 0.7596826878208119
Li 0.25 0 0.809146056929538
Li 0.25 0 0.8586094260382641
Li 0.25 0.125 0.1166588894073728
Li 0.25 0.125 0.1661222585160989
Li 0.25 0.125 0.215585627624825
Li 0.25 0.125 0.2650489967335511
Li 0.25 0.125 0.3145123658422772
Li 0.25 0.125 0.3639757349510033
Li 0.25 0.125 0.4134391040597294
Li 0.25 0.125 0.4629024731684555
Li 0.25 0.125 0.5123658422771815
Li 0.25 0.125 0.5618292113859076
Li 0.25 0.125 0.6112925804946338
Li 0.25 0.125 0.6607559496033598
Li 0.25 0.125 0.7102193187120859
Li 0.25 0.125 0.7596826878208119
Li 0.25 0.125 0.809146056929538
Li 0.25 0.125 0.8586094260382641
Li 0.25 0.25 0.1166588894073728
Li 0.25 0.25 0.1661222585160989
Li 0.25 0.25 0.215585627624825
Li 0.25 0.25 0.2650489967335511
Li 0.25 0.25 0.3145123658422772
Li 0.25 0.25 0.3639757349510033
Li 0.25 0.25 0.4134391040597294
Li 0.25 0.25 0.4629024731684555
Li 0.25 0.25 0.5123658422771815
Li 0.25 0.25 0.5618292113859076
Li 0.25 0.25 0.6112925804946338
Li 0.25 0.25 0.6607559496033598
Li 0.25 0.25 0.7102193187120859
Li 0.25 0.25 0.7596826878208119
Li 0.25 0.25 0.809146056929538
Li 0.25 0.25 0.8586094260382641
Li 0.25 0.3750000000000001 0.1166588894073728
Li 0.25 0.3750000000000001 0.1661222585160989
Li 0.25 0.3750000000000001 0.215585627624825
Li 0.25 0.3750000000000001 0.2650489967335511
Li 0.25 0.3750000000000001 0.3145123658422772
Li 0.25 0.3750000000000001 0.3639757349510033
Li 0.25 0.3750000000000001 0.4134391040597294
Li 0.25 0.3750000000000001 0.4629024731684555
Li 0.25 0.3750000000000001 0.5123658422771815
Li 0.25 0.3750000000000001 0.5618292113859076
Li 0.25 0.3750000000000001 0.6112925804946338
Li 0.25 0.3750000000000001 0.6607559496033598
Li 0.25 0.3750000000000001 0.7102193187120859
Li 0.25 0.3750000000000001 0.7596826878208119
Li 0.25 0.3750000000000001 0.809146056929538
Li 0.25 0.3750000000000001 0.8586094260382641
Li 0.25 0.5 0.1166588894073728
Li 0.25 0.5 0.1661222585160989
Li 0.25 0.5 0.215585627624825
Li 0.25 0.5 0.2650489967335511
Li 0.25 0.5 0.3145123658422772
Li 0.25 0.5 0.3639757349510033
Li 0.25 0.5 0.4134391040597294
Li 0.25 0.5 0.4629024731684555
Li 0.25 0.5 0.5123658422771815
Li 0.25 0.5 0.5618292113859076
Li 0.25 0.5 0.6112925804946338
Li 0.25 0.5 0.6607559496033598
Li 0.25 0.5 0.7102193187120859
Li 0.25 0.5 0.7596826878208119
Li 0.25 0.5 0.809146056929538
Li 0.25 0.5 0.8586094260382641
Li 0.25 0.6250000000000001 0.1166588894073728
Li 0.25 0.6250000000000001 0.1661222585160989
Li 0.25 0.6250000000000001 0.215585627624825
Li 0.25 0.6250000000000001 0.2650489967335511
Li 0.25 0.6250000000000001 0.3145123658422772
Li 0.25 0.6250000000000001 0.3639757349510033
Li 0.25 0.6250000000000001 0.4134391040597294
Li 0.25 0.6250000000000001 0.4629024731684555
Li 0.25 0.6250000000000001 0.5123658422771815
Li 0.25 0.6250000000000001 0.5618292113859076
Li 0.25 0.6250000000000001 0.6112925804946338
Li 0.25 0.6250000000000001 0.6607559496033598
Li 0.25 0.6250000000000001 0.7102193187120859
Li 0.25 0.6250000000000001 0.7596826878208119
Li 0.25 0.6250000000000001 0.809146056929538
Li 0.25 0.6250000000000001 0.8586094260382641
Li 0.25 0.7500000000000001 0.1166588894073728
Li 0.25 0.7500000000000001 0.1661222585160989
Li 0.25 0.7500000000000001 0.215585627624825
Li 0.25 0.7500000000000001 0.2650489967335511
Li 0.25 0.7500000000000001 0.3145123658422772
Li 0.25 0.7500000000000001 0.3639757349510033
Li 0.25 0.7500000000000001 0.4134391040597294
Li 0.25 0.7500000000000001 0.4629024731684555
Li 0.25 0.7500000000000001 0.5123658422771815
Li 0.25 0.7500000000000001 0.5618292113859076
Li 0.25 0.7500000000000001 0.6112925804946338
Li 0.25 0.7500000000000001 0.6607559496033598
Li 0.25 0.7500000000000001 0.7102193187120859
Li 0.25 0.7500000000000001 0.7596826878208119
Li 0.25 0.7500000000000001 0.809146056929538
Li 0.25 0.7500000000000001 0.8586094260382641
Li 0.25 0.875 0.1166588894073728
Li 0.25 0.875 0.1661222585160989
Li 0.25 0.875 0.215585627624825
Li 0.25 0.875 0.2650489967335511
Li 0.25 0.875 0.3145123658422772
Li 0.25 0.875 0.3639757349510033
Li 0.25 0.875 0.4134391040597294
Li 0.25 0.875 0.4629024731684555
Li 0.25 0.875 0.5123658422771815
Li 0.25 0.875 0.5618292113859076
Li 0.25 0.875 0.6112925804946338
Li 0.25 0.875 0.6607559496033598
Li 0.25 0.875 0.7102193187120859
Li 0.25 0.875 0.7596826878208119
Li 0.25 0.875 0.809146056929538
Li 0.25 0.875 0.8586094260382641
Li 0.3750000000000001 0 0.1166588894073728
Li 0.3750000000000001 0 0.1661222585160989
Li 0.3750000000000001 0 0.215585627624825
Li 0.3750000000000001 0 0.2650489967335511
Li 0.3750000000000001 0 0.3145123658422772
Li 0.3750000000000001 0 0.3639757349510033
Li 0.3750000000000001 0 0.4134391040597294
Li 0.3750000000000001 0 0.4629024731684555
Li 0.3750000000000001 0 0.5123658422771815
Li 0.3750000000000001 0 0.5618292113859076
Li 0.3750000000000001 0 0.6112925804946338
Li 0.3750000000000001 0 0.6607559496033598
Li 0.3750000000000001 0 0.7102193187120859
Li 0.3750000000000001 0 0.7596826878208119
Li 0.3750000000000001 0 0.809146056929538
Li 0.3750000000000001 0 0.8586094260382641
Li 0.3750000000000001 0.125 0.1166588894073728
Li 0.3750000000000001 0.125 0.1661222585160989
Li 0.3750000000000001 0.125 0.215585627624825
Li 0.3750000000000001 0.125 0.2650489967335511
Li 0.3750000000000001 0.125 0.3145123658422772
Li 0.3750000000000001 0.125 0.3639757349510033
Li 0.3750000000000001 0.125 0.4134391040597294
Li 0.3750000000000001 0.125 0.4629024731684555
Li 0.3750000000000001 0.125 0.5123658422771815
Li 0.3750000000000001 0.125 0.5618292113859076
Li 0.3750000000000001 0.125 0.6112925804946338
Li 0.3750000000000001 0.125 0.6607559496033598
Li 0.3750000000000001 0.125 0.7102193187120859
Li 0.3750000000000001 0.125 0.7596826878208119
Li 0.3750000000000001 0.125 0.809146056929538
Li 0.3750000000000001 0.125 0.8586094260382641
Li 0.3750000000000001 0.25 0.1166588894073728
Li 0.3750000000000001 0.25 0.1661222585160989
Li 0.3750000000000001 0.25 0.215585627624825
Li 0.3750000000000001 0.25 0.2650489967335511
Li 0.3750000000000001 0.25 0.3145123658422772
Li 0.3750000000000001 0.25 0.3639757349510033
Li 0.3750000000000001 0.25 0.4134391040597294
Li 0.3750000000000001 0.25 0.4629024731684555
Li 0.3750000000000001 0.25 0.5123658422771815
Li 0.3750000000000001 0.25 0.5618292113859076
Li 0.3750000000000001 0.25 0.6112925804946338
Li 0.3750000000000001 0.25 0.6607559496033598
Li 0.3750000000000001 0.25 0.7102193187120859
Li 0.3750000000000001 0.25 0.7596826878208119
Li 0.3750000000000001 0.25 0.809146056929538
Li 0.3750000000000001 0.25 0.8586094260382641
Li 0.3750000000000001 0.3750000000000001 0.1166588894073728
Li 0.3750000000000001 0.3750000000000001 0.1661222585160989
Li 0.3750000000000001 0.3750000000000001 0.215585627624825
Li 0.3750000000000001 0.3750000000000001 0.2650489967335511
Li 0.3750000000000001 0.3750000000000001 0.3145123658422772
Li 0.3750000000000001 0.3750000000000001 0.3639757349510033
Li 0.3750000000000001 0.3750000000000001 0.4134391040597294
Li 0.3750000000000001 0.3750000000000001 0.4629024731684555
Li 0.3750000000000001 0.3750000000000001 0.5123658422771815
Li 0.3750000000000001 0.3750000000000001 0.5618292113859076
Li 0.3750000000000001 0.3750000000000001 0.6112925804946338
Li 0.3750000000000001 0.3750000000000001 0.6607559496033598
Li 0.3750000000000001 0.3750000000000001 0.7102193187120859
Li 0.3750000000000001 0.3750000000000001 0.7596826878208119
Li 0.3750000000000001 0.3750000000000001 0.809146056929538
Li 0.3750000000000001 0.3750000000000001 0.8586094260382641
Li 0.3750000000000001 0.5 0.1166588894073728
Li 0.3750000000000001 0.5 0.1661222585160989
Li 0.3750000000000001 0.5 0.215585627624825
Li 0.3750000000000001 0.5 0.2650489967335511
Li 0.3750000000000001 0.5 0.3145123658422772
Li 0.3750000000000001 0.5 0.3639757349510033
Li 0.3750000000000001 0.5 0.4134391040597294
Li 0.3750000000000001 0.5 0.4629024731684555
Li 0.3750000000000001 0.5 0.5123658422771815
Li 0.3750000000000001 0.5 0.5618292113859076
Li 0.3750000000000001 0.5 0.6112925804946338
Li 0.3750000000000001 0.5 0.6607559496033598
Li 0.3750000000000001 0.5 0.7102193187120859
Li 0.3750000000000001 0.5 0.7596826878208119
Li 0.3750000000000001 0.5 0.809146056929538
Li 0.3750000000000001 0.5 0.8586094260382641
Li 0.3750000000000001 0.6250000000000001 0.1166588894073728
Li 0.3750000000000001 0.6250000000000001 0.1661222585160989
Li 0.3750000000000001 0.6250000000000001 0.215585627624825
Li 0.3750000000000001 0.6250000000000001 0.2650489967335511
Li 0.3750000000000001 0.6250000000000001 0.3145123658422772
Li 0.3750000000000001 0.6250000000000001 0.3639757349510033
Li 0.3750000000000001 0.6250000000000001 0.4134391040597294
Li 0.3750000000000001 0.6250000000000001 0.4629024731684555
Li 0.3750000000000001 0.6250000000000001 0.5123658422771815
Li 0.3750000000000001 0.6250000000000001 0.5618292113859076
Li 0.3750000000000001 0.6250000000000001 0.6112925804946338
Li 0.3750000000000001 0.6250000000000001 0.6607559496033598
Li 0.3750000000000001 0.6250000000000001 0.7102193187120859
Li 0.3750000000000001 0.6250000000000001 0.7596826878208119
Li 0.3750000000000001 0.6250000000000001 0.809146056929538
Li 0.3750000000000001 0.6250000000000001 0.8586094260382641
Li 0.3750000000000001 0.7500000000000001 0.1166588894073728
Li 0.3750000000000001 0.7500000000000001 0.1661222585160989
Li 0.3750000000000001 0.7500000000000001 0.215585627624825
Li 0.3750000000000001 0.7500000000000001 0.2650489967335511
Li 0.3750000000000001 0.7500000000000001 0.3145123658422772
Li 0.3750000000000001 0.7500000000000001 0.3639757349510033
Li 0.3750000000000001 0.7500000000000001 0.4134391040597294
Li 0.3750000000000001 0.7500000000000001 0.4629024731684555
Li 0.3750000000000001 0.7500000000000001 0.5123658422771815
Li 0.3750000000000001 0.7500000000000001 0.5618292113859076
Li 0.3750000000000001 0.7500000000000001 0.6112925804946338
Li 0.3750000000000001 0.7500000000000001 0.6607559496033598
Li 0.3750000000000001 0.7500000000000001 0.7102193187120859
Li 0.3750000000000001 0.7500000000000001 0.7596826878208119
Li 0.3750000000000001 0.7500000000000001 0.809146056929538
Li 0.3750000000000001 0.7500000000000001 0.8586094260382641
Li 0.3750000000000001 0.875 0.1166588894073728
Li 0.3750000000000001 0.875 0.1661222585160989
Li 0.3750000000000001 0.875 0.215585627624825
Li 0.3750000000000001 0.875 0.2650489967335511
Li 0.3750000000000001 0.875 0.3145123658422772
Li 0.3750000000000001 0.875 0.3639757349510033
Li 0.3750000000000001 0.875 0.4134391040597294
Li 0.3750000000000001 0.875 0.4629024731684555
Li 0.3750000000000001 0.875 0.5123658422771815
Li 0.3750000000000001 0.875 0.5618292113859076
Li 0.3750000000000001 0.875 0.6112925804946338
Li 0.3750000000000001 0.875 0.6607559496033598
Li 0.3750000000000001 0.875 0.7102193187120859
Li 0.3750000000000001 0.875 0.7596826878208119
Li 0.3750000000000001 0.875 0.809146056929538
Li 0.3750000000000001 0.875 0.8586094260382641
Li 0.5 0 0.1166588894073728
Li 0.5 0 0.1661222585160989
Li 0.5 0 0.215585627624825
Li 0.5 0 0.2650489967335511
Li 0.5 0 0.3145123658422772
Li 0.5 0 0.3639757349510033
Li 0.5 0 0.4134391040597294
Li 0.5 0 0.4629024731684555
Li 0.5 0 0.5123658422771815
Li 0.5 0 0.5618292113859076
Li 0.5 0 0.6112925804946338
Li 0.5 0 0.6607559496033598
Li 0.5 0 0.7102193187120859
Li 0.5 0 0.7596826878208119
Li 0.5 0 0.809146056929538
Li 0.5 0 0.8586094260382641
Li 0.5 0.125 0.1166588894073728
Li 0.5 0.125 0.1661222585160989
Li 0.5 0.125 0.215585627624825
Li 0.5 0.125 0.2650489967335511
Li 0.5 0.125 0.3145123658422772
Li 0.5 0.125 0.3639757349510033
Li 0.5 0.125 0.4134391040597294
Li 0.5 0.125 0.4629024731684555
Li 0.5 0.125 0.5123658422771815
Li 0.5 0.125 0.5618292113859076
Li 0.5 0.125 0.6112925804946338
Li 0.5 0.125 0.6607559496033598
Li 0.5 0.125 0.7102193187120859
Li 0.5 0.125 0.7596826878208119
Li 0.5 0.125 0.809146056929538
Li 0.5 0.125 0.8586094260382641
Li 0.5 0.25 0.1166588894073728
Li 0.5 0.25 0.1661222585160989
Li 0.5 0.25 0.215585627624825
Li 0.5 0.25 0.2650489967335511
Li 0.5 0.25 0.3145123658422772
Li 0.5 0.25 0.3639757349510033
Li 0.5 0.25 0.4134391040597294
Li 0.5 0.25 0.4629024731684555
Li 0.5 0.25 0.5123658422771815
Li 0.5 0.25 0.5618292113859076
Li 0.5 0.25 0.6112925804946338
Li 0.5 0.25 0.6607559496033598
Li 0.5 0.25 0.7102193187120859
Li 0.5 0.25 0.7596826878208119
Li 0.5 0.25 0.809146056929538
Li 0.5 0.25 0.8586094260382641
Li 0.5 0.3750000000000001 0.1166588894073728
Li 0.5 0.3750000000000001 0.1661222585160989
Li 0.5 0.3750000000000001 0.215585627624825
Li 0.5 0.3750000000000001 0.2650489967335511
Li 0.5 0.3750000000000001 0.3145123658422772
Li 0.5 0.3750000000000001 0.3639757349510033
Li 0.5 0.3750000000000001 0.4134391040597294
Li 0.5 0.3750000000000001 0.4629024731684555
Li 0.5 0.3750000000000001 0.5123658422771815
Li 0.5 0.3750000000000001 0.5618292113859076
Li 0.5 0.3750000000000001 0.6112925804946338
Li 0.5 0.3750000000000001 0.6607559496033598
Li 0.5 0.3750000000000001 0.7102193187120859
Li 0.5 0.3750000000000001 0.7596826878208119
Li 0.5 0.3750000000000001 0.809146056929538
Li 0.5 0.3750000000000001 0.8586094260382641
Li 0.5 0.5 0.1166588894073728
Li 0.5 0.5 0.1661222585160989
Li 0.5 0.5 0.215585627624825
Li 0.5 0.5 0.2650489967335511
Li 0.5 0.5 0.3145123658422772
Li 0.5 0.5 0.3639757349510033
Li 0.5 0.5 0.4134391040597294
Li 0.5 0.5 0.4629024731684555
Li 0.5 0.5 0.5123658422771815
Li 0.5 0.5 0.5618292113859076
Li 0.5 0.5 0.6112925804946338
Li 0.5 0.5 0.6607559496033598
Li 0.5 0.5 0.7102193187120859
Li 0.5 0.5 0.7596826878208119
Li 0.5 0.5 0.809146056929538
Li 0.5 0.5 0.8586094260382641
Li 0.5 0.6250000000000001 0.1166588894073728
Li 0.5 0.6250000000000001 0.1661222585160989
Li 0.5 0.6250000000000001 0.215585627624825
Li 0.5 0.6250000000000001 0.2650489967335511
Li 0.5 0.6250000000000001 0.3145123658422772
Li 0.5 0.6250000000000001 0.3639757349510033
Li 0.5 0.6250000000000001 0.4134391040597294
Li 0.5 0.6250000000000001 0.4629024731684555
Li 0.5 0.6250000000000001 0.5123658422771815
Li 0.5 0.6250000000000001 0.5618292113859076
Li 0.5 0.6250000000000001 0.6112925804946338
Li 0.5 0.6250000000000001 0.6607559496033598
Li 0.5 0.6250000000000001 0.7102193187120859
Li 0.5 0.6250000000000001 0.7596826878208119
Li 0.5 0.6250000000000001 0.809146056929538
Li 0.5 0.6250000000000001 0.8586094260382641
Li 0.5 0.7500000000000001 0.1166588894073728
Li 0.5 0.7500000000000001 0.1661222585160989
Li 0.5 0.7500000000000001 0.215585627624825
Li 0.5 0.7500000000000001 0.2650489967335511
Li 0.5 0.7500000000000001 0.3145123658422772
Li 0.5 0.7500000000000001 0.3639757349510033
Li 0.5 0.7500000000000001 0.4134391040597294
Li 0.5 0.7500000000000001 0.4629024731684555
Li 0.5 0.7500000000000001 0.5123658422771815
Li 0.5 0.7500000000000001 0.5618292113859076
Li 0.5 0.7500000000000001 0.6112925804946338
Li 0.5 0.7500000000000001 0.6607559496033598
Li 0.5 0.7500000000000001 0.7102193187120859
Li 0.5 0.7500000000000001 0.7596826878208119
Li 0.5 0.7500000000000001 0.809146056929538
Li 0.5 0.7500000000000001 0.8586094260382641
Li 0.5 0.875 0.1166588894073728
Li 0.5 0.875 0.1661222585160989
Li 0.5 0.875 0.215585627624825
Li 0.5 0.875 0.2650489967335511
Li 0.5 0.875 0.3145123658422772
Li 0.5 0.875 0.3639757349510033
Li 0.5 0.875 0.4134391040597294
Li 0.5 0.875 0.4629024731684555
Li 0.5 0.875 0.5123658422771815
Li 0.5 0.875 0.5618292113859076
Li 0.5 0.875 0.6112925804946338
Li 0.5 0.875 0.6607559496033598
Li 0.5 0.875 0.7102193187120859
Li 0.5 0.875 0.7596826878208119
Li 0.5 0.875 0.809146056929538
Li 0.5 0.875 0.8586094260382641
Li 0.6250000000000001 0 0.1166588894073728
Li 0.6250000000000001 0 0.1661222585160989
Li 0.6250000000000001 0 0.215585627624825
Li 0.6250000000000001 0 0.2650489967335511
Li 0.6250000000000001 0 0.3145123658422772
Li 0.6250000000000001 0 0.3639757349510033
Li 0.6250000000000001 0 0.4134391040597294
Li 0.6250000000000001 0 0.4629024731684555
Li 0.6250000000000001 0 0.5123658422771815
Li 0.6250000000000001 0 0.5618292113859076
Li 0.6250000000000001 0 0.6112925804946338
Li 0.6250000000000001 0 0.6607559496033598
Li 0.6250000000000001 0 0.7102193187120859
Li 0.6250000000000001 0 0.7596826878208119
Li 0.6250000000000001 0 0.809146056929538
Li 0.6250000000000001 0 0.8586094260382641
Li 0.6250000000000001 0.125 0.1166588894073728
Li 0.6250000000000001 0.125 0.1661222585160989
Li 0.6250000000000001 0.125 0.215585627624825
Li 0.6250000000000001 0.125 0.2650489967335511
Li 0.6250000000000001 0.125 0.3145123658422772
Li 0.6250000000000001 0.125 0.3639757349510033
Li 0.6250000000000001 0.125 0.4134391040597294
Li 0.6250000000000001 0.125 0.4629024731684555
Li 0.6250000000000001 0.125 0.5123658422771815
Li 0.6250000000000001 0.125 0.5618292113859076
Li 0.6250000000000001 0.125 0.6112925804946338
Li 0.6250000000000001 0.125 0.6607559496033598
Li 0.6250000000000001 0.125 0.7102193187120859
Li 0.6250000000000001 0.125 0.7596826878208119
Li 0.6250000000000001 0.125 0.809146056929538
Li 0.6250000000000001 0.125 0.8586094260382641
Li 0.6250000000000001 0.25 0.1166588894073728
Li 0.6250000000000001 0.25 0.1661222585160989
Li 0.6250000000000001 0.25 0.215585627624825
Li 0.6250000000000001 0.25 0.2650489967335511
Li 0.6250000000000001 0.25 0.3145123658422772
Li 0.6250000000000001 0.25 0.3639757349510033
Li 0.6250000000000001 0.25 0.4134391040597294
Li 0.6250000000000001 0.25 0.4629024731684555
Li 0.6250000000000001 0.25 0.5123658422771815
Li 0.6250000000000001 0.25 0.5618292113859076
Li 0.6250000000000001 0.25 0.6112925804946338
Li 0.6250000000000001 0.25 0.6607559496033598
Li 0.6250000000000001 0.25 0.7102193187120859
Li 0.6250000000000001 0.25 0.7596826878208119
Li 0.6250000000000001 0.25 0.809146056929538
Li 0.6250000000000001 0.25 0.8586094260382641
Li 0.6250000000000001 0.3750000000000001 0.1166588894073728
Li 0.6250000000000001 0.3750000000000001 0.1661222585160989
Li 0.6250000000000001 0.3750000000000001 0.215585627624825
Li 0.6250000000000001 0.3750000000000001 0.2650489967335511
Li 0.6250000000000001 0.3750000000000001 0.3145123658422772
Li 0.6250000000000001 0.3750000000000001 0.3639757349510033
Li 0.6250000000000001 0.3750000000000001 0.4134391040597294
Li 0.6250000000000001 0.3750000000000001 0.4629024731684555
Li 0.6250000000000001 0.3750000000000001 0.5123658422771815
Li 0.6250000000000001 0.3750000000000001 0.5618292113859076
Li 0.6250000000000001 0.3750000000000001 0.6112925804946338
Li 0.6250000000000001 0.3750000000000001 0.6607559496033598
Li 0.6250000000000001 0.3750000000000001 0.7102193187120859
Li 0.6250000000000001 0.3750000000000001 0.7596826878208119
Li 0.6250000000000001 0.3750000000000001 0.809146056929538
Li 0.6250000000000001 0.3750000000000001 0.8586094260382641
Li 0.6250000000000001 0.5 0.1166588894073728
Li 0.6250000000000001 0.5 0.1661222585160989
Li 0.6250000000000001 0.5 0.215585627624825
Li 0.6250000000000001 0.5 0.2650489967335511
Li 0.6250000000000001 0.5 0.3145123658422772
Li 0.6250000000000001 0.5 0.3639757349510033
Li 0.6250000000000001 0.5 0.4134391040597294
Li 0.6250000000000001 0.5 0.4629024731684555
Li 0.6250000000000001 0.5 0.5123658422771815
Li 0.6250000000000001 0.5 0.5618292113859076
Li 0.6250000000000001 0.5 0.6112925804946338
Li 0.6250000000000001 0.5 0.6607559496033598
Li 0.6250000000000001 0.5 0.7102193187120859
Li 0.6250000000000001 0.5 0.7596826878208119
Li 0.6250000000000001 0.5 0.809146056929538
Li 0.6250000000000001 0.5 0.8586094260382641
Li 0.6250000000000001 0.6250000000000001 0.1166588894073728
Li 0.6250000000000001 0.6250000000000001 0.1661222585160989
Li 0.6250000000000001 0.6250000000000001 0.215585627624825
Li 0.6250000000000001 0.6250000000000001 0.2650489967335511
Li 0.6250000000000001 0.6250000000000001 0.3145123658422772
Li 0.6250000000000001 0.6250000000000001 0.3639757349510033
Li 0.6250000000000001 0.6250000000000001 0.4134391040597294
Li 0.6250000000000001 0.6250000000000001 0.4629024731684555
Li 0.6250000000000001 0.6250000000000001 0.5123658422771815
Li 0.6250000000000001 0.6250000000000001 0.5618292113859076
Li 0.6250000000000001 0.6250000000000001 0.6112925804946338
Li 0.6250000000000001 0.6250000000000001 0.6607559496033598
Li 0.6250000000000001 0.6250000000000001 0.7102193187120859
Li 0.6250000000000001 0.6250000000000001 0.7596826878208119
Li 0.6250000000000001 0.6250000000000001 0.809146056929538
Li 0.6250000000000001 0.6250000000000001 0.8586094260382641
Li 0.6250000000000001 0.7500000000000001 0.1166588894073728