%BLOCK LATTICE_CART
28.4348 0 0
0 28.4348 0
0 0 71.09242499999999
%END BLOCK LATTICE_CART
%BLOCK POSITIONS_FRAC
Li 0 0 0.112529569781872
Li 0 0 0.1625257543261466
Li 0 0 0.2125219388704211
Li 0 0 0.2625181234146957
Li 0 0 0.3125143079589703
Li 0 0 0.362510492503245
Li 0 0 0.4125066770475195
Li 0 0 0.462502861591794
Li 0 0 0.5124990461360687
Li 0 0 0.5624952306803432
Li 0 0 0.6124914152246179
Li 0 0 0.6624875997688925
Li 0 0 0.7124837843131671
Li 0 0 0.7624799688574416
Li 0 0 0.8124761534017162
Li 0 0 0.8624723379459909
Li 0 0.125 0.112529569781872
Li 0 0.125 0.1625257543261466
Li 0 0.125 0.2125219388704211
Li 0 0.125 0.2625181234146957
Li 0 0.125 0.3125143079589703
Li 0 0.125 0.362510492503245
Li 0 0.125 0.4125066770475195
Li 0 0.125 0.462502861591794
Li 0 0.125 0.5124990461360687
Li 0 0.125 0.5624952306803432
Li 0 0.125 0.6124914152246179
Li 0 0.125 0.6624875997688925
Li 0 0.125 0.7124837843131671
Li 0 0.125 0.7624799688574416
Li 0 0.125 0.8124761534017162
Li 0 0.125 0.8624723379459909
Li 0 0.25 0.112529569781872
Li 0 0.25 0.1625257543261466
Li 0 0.25 0.2125219388704211
Li 0 0.25 0.2625181234146957
Li 0 0.25 0.3125143079589703
Li 0 0.25 0.362510492503245
Li 0 0.25 0.4125066770475195
Li 0 0.25 0.462502861591794
Li 0 0.25 0.5124990461360687
Li 0 0.25 0.5624952306803432
Li 0 0.25 0.6124914152246179
Li 0 0.25 0.6624875997688925
Li 0 0.25 0.7124837843131671
Li 0 0.25 0.7624799688574416
Li 0 0.25 0.8124761534017162
Li 0 0.25 0.8624723379459909
Li 0 0.375 0.112529569781872
Li 0 0.375 0.1625257543261466
Li 0 0.375 0.2125219388704211
Li 0 0.375 0.2625181234146957
Li 0 0.375 0.3125143079589703
Li 0 0.375 0.362510492503245
Li 0 0.375 0.4125066770475195
Li 0 0.375 0.462502861591794
Li 0 0.375 0.5124990461360687
Li 0 0.375 0.5624952306803432
Li 0 0.375 0.6124914152246179
Li 0 0.375 0.6624875997688925
Li 0 0.375 0.7124837843131671
Li 0 0.375 0.7624799688574416
Li 0 0.375 0.8124761534017162
Li 0 0.375 0.8624723379459909
Li 0 0.4999999999999999 0.112529569781872
Li 0 0.4999999999999999 0.1625257543261466
Li 0 0.4999999999999999 0.2125219388704211
Li 0 0.4999999999999999 0.2625181234146957
Li 0 0.4999999999999999 0.3125143079589703
Li 0 0.4999999999999999 0.362510492503245
Li 0 0.4999999999999999 0.4125066770475195
Li 0 0.4999999999999999 0.462502861591794
Li 0 0.4999999999999999 0.5124990461360687
Li 0 0.4999999999999999 0.5624952306803432
Li 0 0.4999999999999999 0.6124914152246179
Li 0 0.4999999999999999 0.6624875997688925
Li 0 0.4999999999999999 0.7124837843131671
Li 0 0.4999999999999999 0.7624799688574416
Li 0 0.4999999999999999 0.8124761534017162
Li 0 0.4999999999999999 0.8624723379459909
Li 0 0.625 0.112529569781872
Li 0 0.625 0.1625257543261466
Li 0 0.625 0.2125219388704211
Li 0 0.625 0.2625181234146957
Li 0 0.625 0.3125143079589703
Li 0 0.625 0.362510492503245
Li 0 0.625 0.4125066770475195
Li 0 0.625 0.462502861591794
Li 0 0.625 0.5124990461360687
Li 0 0.625 0.5624952306803432
Li 0 0.625 0.6124914152246179
Li 0 0.625 0.6624875997688925
Li 0 0.625 0.7124837843131671
Li 0 0.625 0.7624799688574416
Li 0 0.625 0.8124761534017162
Li 0 0.625 0.8624723379459909
Li 0 0.75 0.112529569781872
Li 0 0.75 0.1625257543261466
Li 0 0.75 0.2125219388704211
Li 0 0.75 0.2625181234146957
Li 0 0.75 0.3125143079589703
Li 0 0.75 0.362510492503245
Li 0 0.75 0.4125066770475195
Li 0 0.75 0.462502861591794
Li 0 0.75 0.5124990461360687
Li 0 0.75 0.5624952306803432
Li 0 0.75 0.6124914152246179
Li 0 0.75 0.6624875997688925
Li 0 0.75 0.7124837843131671
Li 0 0.75 0.7624799688574416
Li 0 0.75 0.8124761534017162
Li 0 0.75 0.8624723379459909
Li 0 0.8749999999999999 0.112529569781872
Li 0 0.8749999999999999 0.1625257543261466
Li 0 0.8749999999999999 0.2125219388704211
Li 0 0.8749999999999999 0.2625181234146957
Li 0 0.8749999999999999 0.3125143079589703
Li 0 0.8749999999999999 0.362510492503245
Li 0 0.8749999999999999 0.4125066770475195
Li 0 0.8749999999999999 0.462502861591794
Li 0 0.8749999999999999 0.5124990461360687
Li 0 0.8749999999999999 0.5624952306803432
Li 0 0.8749999999999999 0.6124914152246179
Li 0 0.8749999999999999 0.6624875997688925
Li 0 0.8749999999999999 0.7124837843131671
Li 0 0.8749999999999999 0.7624799688574416
Li 0 0.8749999999999999 0.8124761534017162
Li 0 0.8749999999999999 0.8624723379459909
Li 0.125 0 0.112529569781872
Li 0.125 0 0.1625257543261466
Li 0.125 0 0.2125219388704211
Li 0.125 0 0.2625181234146957
Li 0.125 0 0.3125143079589703
Li 0.125 0 0.362510492503245
Li 0.125 0 0.4125066770475195
Li 0.125 0 0.462502861591794
Li 0.125 0 0.5124990461360687
Li 0.125 0 0.5624952306803432
Li 0.125 0 0.6124914152246179
Li 0.125 0 0.6624875997688925
Li 0.125 0 0.7124837843131671
Li 0.125 0 0.7624799688574416
Li 0.125 0 0.8124761534017162
Li 0.125 0 0.8624723379459909
Li 0.125 0.125 0.112529569781872
Li 0.125 0.125 0.1625257543261466
Li 0.125 0.125 0.2125219388704211
Li 0.125 0.125 0.2625181234146957
Li 0.125 0.125 0.3125143079589703
Li 0.125 0.125 0.362510492503245
Li 0.125 0.125 0.4125066770475195
Li 0.125 0.125 0.462502861591794
Li 0.125 0.125 0.5124990461360687
Li 0.125 0.125 0.5624952306803432
Li 0.125 0.125 0.6124914152246179
Li 0.125 0.125 0.6624875997688925
Li 0.125 0.125 0.7124837843131671
Li 0.125 0.125 0.7624799688574416
Li 0.125 0.125 0.8124761534017162
Li 0.125 0.125 0.8624723379459909
Li 0.125 0.25 0.112529569781872
Li 0.125 0.25 0.1625257543261466
Li 0.125 0.25 0.2125219388704211
Li 0.125 0.25 0.2625181234146957
Li 0.125 0.25 0.3125143079589703
Li 0.125 0.25 0.362510492503245
Li 0.125 0.25 0.4125066770475195
Li 0.125 0.25 0.462502861591794
Li 0.125 0.25 0.5124990461360687
Li 0.125 0.25 0.5624952306803432
Li 0.125 0.25 0.6124914152246179
Li 0.125 0.25 0.6624875997688925
Li 0.125 0.25 0.7124837843131671
Li 0.125 0.25 0.7624799688574416
Li 0.125 0.25 0.8124761534017162
Li 0.125 0.25 0.8624723379459909
Li 0.125 0.375 0.112529569781872
Li 0.125 0.375 0.1625257543261466
Li 0.125 0.375 0.2125219388704211
Li 0.125 0.375 0.2625181234146957
Li 0.125 0.375 0.3125143079589703
Li 0.125 0.375 0.362510492503245
Li 0.125 0.375 0.4125066770475195
Li 0.125 0.375 0.462502861591794
Li 0.125 0.375 0.5124990461360687
Li 0.125 0.375 0.5624952306803432
Li 0.125 0.375 0.6124914152246179
Li 0.125 0.375 0.6624875997688925
Li 0.125 0.375 0.7124837843131671
Li 0.125 0.375 0.7624799688574416
Li 0.125 0.375 0.8124761534017162
Li 0.125 0.375 0.8624723379459909
Li 0.125 0.4999999999999999 0.112529569781872
Li 0.125 0.4999999999999999 0.1625257543261466
Li 0.125 0.4999999999999999 0.2125219388704211
Li 0.125 0.4999999999999999 0.2625181234146957
Li 0.125 0.4999999999999999 0.3125143079589703
Li 0.125 0.4999999999999999 0.362510492503245
Li 0.125 0.4999999999999999 0.4125066770475195
Li 0.125 0.4999999999999999 0.462502861591794
Li 0.125 0.4999999999999999 0.5124990461360687
Li 0.125 0.4999999999999999 0.5624952306803432
Li 0.125 0.4999999999999999 0.6124914152246179
Li 0.125 0.4999999999999999 0.6624875997688925
Li 0.125 0.4999999999999999 0.7124837843131671
Li 0.125 0.4999999999999999 0.7624799688574416
Li 0.125 0.4999999999999999 0.8124761534017162
Li 0.125 0.4999999999999999 0.8624723379459909
Li 0.125 0.625 0.112529569781872
Li 0.125 0.625 0.1625257543261466
Li 0.125 0.625 0.2125219388704211
Li 0.125 0.625 0.2625181234146957
Li 0.125 0.625 0.3125143079589703
Li 0.125 0.625 0.362510492503245
Li 0.125 0.625 0.4125066770475195
Li 0.125 0.625 0.462502861591794
Li 0.125 0.625 0.5124990461360687
Li 0.125 0.625 0.5624952306803432
Li 0.125 0.625 0.6124914152246179
Li 0.125 0.625 0.6624875997688925
Li 0.125 0.625 0.7124837843131671
Li 0.125 0.625 0.7624799688574416
Li 0.125 0.625 0.8124761534017162
Li 0.125 0.625 0.8624723379459909
Li 0.125 0.75 0.112529569781872
Li 0.125 0.75 0.1625257543261466
Li 0.125 0.75 0.2125219388704211
Li 0.125 0.75 0.2625181234146957
Li 0.125 0.75 0.3125143079589703
Li 0.125 0.75 0.362510492503245
Li 0.125 0.75 0.4125066770475195
Li 0.125 0.75 0.462502861591794
Li 0.125 0.75 0.5124990461360687
Li 0.125 0.75 0.5624952306803432
Li 0.125 0.75 0.6124914152246179
Li 0.125 0.75 0.6624875997688925
Li 0.125 0.75 0.7124837843131671
Li 0.125 0.75 0.7624799688574416
Li 0.125 0.75 0.8124761534017162
Li 0.125 0.75 0.8624723379459909
Li 0.125 0.8749999999999999 0.112529569781872
Li 0.125 0.8749999999999999 0.1625257543261466
Li 0.125 0.8749999999999999 0.2125219388704211
Li 0.125 0.8749999999999999 0.2625181234146957
Li 0.125 0.8749999999999999 0.3125143079589703
Li 0.125 0.8749999999999999 0.362510492503245
Li 0.125 0.8749999999999999 0.4125066770475195
Li 0.125 0.8749999999999999 0.462502861591794
Li 0.125 0.8749999999999999 0.5124990461360687
Li 0.125 0.8749999999999999 0.5624952306803432
Li 0.125 0.8749999999999999 0.6124914152246179
Li 0.125 0.8749999999999999 0.6624875997688925
Li 0.125 0.8749999999999999 0.7124837843131671
Li 0.125 0.8749999999999999 0.7624799688574416
Li 0.125 0.8749999999999999 0.8124761534017162
Li 0.125 0.8749999999999999 0.8624723379459909
Li 0.25 0 0.112529569781872
Li 0.25 0 0.1625257543261466
Li 0.25 0 0.2125219388704211
Li 0.25 0 0.2625181234146957
Li 0.25 0 0.3125143079589703
Li 0.25 0 0.362510492503245
Li 0.25 0 0.4125066770475195
Li 0.25 0 0.462502861591794
Li 0.25 0 0.5124990461360687
Li 0.25 0 0.5624952306803432
Li 0.25 0 0.6124914152246179
Li 0.25 0 0.6624875997688925
Li 0.25 0 0.7124837843131671
Li 0.25 0 0.7624799688574416
Li 0.25 0 0.8124761534017162
Li 0.25 0 0.8624723379459909
Li 0.25 0.125 0.112529569781872
Li 0.25 0.125 0.1625257543261466
Li 0.25 0.125 0.2125219388704211
Li 0.25 0.125 0.2625181234146957
Li 0.25 0.125 0.3125143079589703
Li 0.25 0.125 0.362510492503245
Li 0.25 0.125 0.4125066770475195
Li 0.25 0.125 0.462502861591794
Li 0.25 0.125 0.5124990461360687
Li 0.25 0.125 0.5624952306803432
Li 0.25 0.125 0.6124914152246179
Li 0.25 0.125 0.6624875997688925
Li 0.25 0.125 0.7124837843131671
Li 0.25 0.125 0.7624799688574416
Li 0.25 0.125 0.8124761534017162
Li 0.25 0.125 0.8624723379459909
Li 0.25 0.25 0.112529569781872
Li 0.25 0.25 0.1625257543261466
Li 0.25 0.25 0.2125219388704211
Li 0.25 0.25 0.2625181234146957
Li 0.25 0.25 0.3125143079589703
Li 0.25 0.25 0.362510492503245
Li 0.25 0.25 0.4125066770475195
Li 0.25 0.25 0.462502861591794
Li 0.25 0.25 0.5124990461360687
Li 0.25 0.25 0.5624952306803432
Li 0.25 0.25 0.6124914152246179
Li 0.25 0.25 0.6624875997688925
Li 0.25 0.25 0.7124837843131671
Li 0.25 0.25 0.7624799688574416
Li 0.25 0.25 0.8124761534017162
Li 0.25 0.25 0.8624723379459909
Li 0.25 0.375 0.112529569781872
Li 0.25 0.375 0.1625257543261466
Li 0.25 0.375 0.2125219388704211
Li 0.25 0.375 0.2625181234146957
Li 0.25 0.375 0.3125143079589703
Li 0.25 0.375 0.362510492503245
Li 0.25 0.375 0.4125066770475195
Li 0.25 0.375 0.462502861591794
Li 0.25 0.375 0.5124990461360687
Li 0.25 0.375 0.5624952306803432
Li 0.25 0.375 0.6124914152246179
Li 0.25 0.375 0.6624875997688925
Li 0.25 0.375 0.7124837843131671
Li 0.25 0.375 0.7624799688574416
Li 0.25 0.375 0.8124761534017162
Li 0.25 0.375 0.8624723379459909
Li 0.25 0.4999999999999999 0.112529569781872
Li 0.25 0.4999999999999999 0.1625257543261466
Li 0.25 0.4999999999999999 0.2125219388704211
Li 0.25 0.4999999999999999 0.2625181234146957
Li 0.25 0.4999999999999999 0.3125143079589703
Li 0.25 0.4999999999999999 0.362510492503245
Li 0.25 0.4999999999999999 0.4125066770475195
Li 0.25 0.4999999999999999 0.462502861591794
Li 0.25 0.4999999999999999 0.5124990461360687
Li 0.25 0.4999999999999999 0.5624952306803432
Li 0.25 0.4999999999999999 0.6124914152246179
Li 0.25 0.4999999999999999 0.6624875997688925
Li 0.25 0.4999999999999999 0.7124837843131671
Li 0.25 0.4999999999999999 0.7624799688574416
Li 0.25 0.4999999999999999 0.8124761534017162
Li 0.25 0.4999999999999999 0.8624723379459909
Li 0.25 0.625 0.112529569781872
Li 0.25 0.625 0.1625257543261466
Li 0.25 0.625 0.2125219388704211
Li 0.25 0.625 0.2625181234146957
Li 0.25 0.625 0.3125143079589703
Li 0.25 0.625 0.362510492503245
Li 0.25 0.625 0.4125066770475195
Li 0.25 0.625 0.462502861591794
Li 0.25 0.625 0.5124990461360687
Li 0.25 0.625 0.5624952306803432
Li 0.25 0.625 0.6124914152246179
Li 0.25 0.625 0.6624875997688925
Li 0.25 0.625 0.7124837843131671
Li 0.25 0.625 0.7624799688574416
Li 0.25 0.625 0.8124761534017162
Li 0.25 0.625 0.8624723379459909
Li 0.25 0.75 0.112529569781872
Li 0.25 0.75 0.1625257543261466
Li 0.25 0.75 0.2125219388704211
Li 0.25 0.75 0.2625181234146957
Li 0.25 0.75 0.3125143079589703
Li 0.25 0.75 0.362510492503245
Li 0.25 0.75 0.4125066770475195
Li 0.25 0.75 0.462502861591794
Li 0.25 0.75 0.5124990461360687
Li 0.25 0.75 0.5624952306803432
Li 0.25 0.75 0.6124914152246179
Li 0.25 0.75 0.6624875997688925
Li 0.25 0.75 0.7124837843131671
Li 0.25 0.75 0.7624799688574416
Li 0.25 0.75 0.8124761534017162
Li 0.25 0.75 0.8624723379459909
Li 0.25 0.8749999999999999 0.112529569781872
Li 0.25 0.8749999999999999 0.1625257543261466
Li 0.25 0.8749999999999999 0.2125219388704211
Li 0.25 0.8749999999999999 0.2625181234146957
Li 0.25 0.8749999999999999 0.3125143079589703
Li 0.25 0.8749999999999999 0.362510492503245
Li 0.25 0.8749999999999999 0.4125066770475195
Li 0.25 0.8749999999999999 0.462502861591794
Li 0.25 0.8749999999999999 0.5124990461360687
Li 0.25 0.8749999999999999 0.5624952306803432
Li 0.25 0.8749999999999999 0.6124914152246179
Li 0.25 0.8749999999999999 0.6624875997688925
Li 0.25 0.8749999999999999 0.7124837843131671
Li 0.25 0.8749999999999999 0.7624799688574416
Li 0.25 0.8749999999999999 0.8124761534017162
Li 0.25 0.8749999999999999 0.8624723379459909
Li 0.375 0 0.112529569781872
Li 0.375 0 0.1625257543261466
Li 0.375 0 0.2125219388704211
Li 0.375 0 0.2625181234146957
Li 0.375 0 0.3125143079589703
Li 0.375 0 0.362510492503245
Li 0.375 0 0.4125066770475195
Li 0.375 0 0.462502861591794
Li 0.375 0 0.5124990461360687
Li 0.375 0 0.5624952306803432
Li 0.375 0 0.6124914152246179
Li 0.375 0 0.6624875997688925
Li 0.375 0 0.7124837843131671
Li 0.375 0 0.7624799688574416
Li 0.375 0 0.8124761534017162
Li 0.375 0 0.8624723379459909
Li 0.375 0.125 0.112529569781872
Li 0.375 0.125 0.1625257543261466
Li 0.375 0.125 0.2125219388704211
Li 0.375 0.125 0.2625181234146957
Li 0.375 0.125 0.3125143079589703
Li 0.375 0.125 0.362510492503245
Li 0.375 0.125 0.4125066770475195
Li 0.375 0.125 0.462502861591794
Li 0.375 0.125 0.5124990461360687
Li 0.375 0.125 0.5624952306803432
Li 0.375 0.125 0.6124914152246179
Li 0.375 0.125 0.6624875997688925
Li 0.375 0.125 0.7124837843131671
Li 0.375 0.125 0.7624799688574416
Li 0.375 0.125 0.8124761534017162
Li 0.375 0.125 0.8624723379459909
Li 0.375 0.25 0.112529569781872
Li 0.375 0.25 0.1625257543261466
Li 0.375 0.25 0.2125219388704211
Li 0.375 0.25 0.2625181234146957
Li 0.375 0.25 0.3125143079589703
Li 0.375 0.25 0.362510492503245
Li 0.375 0.25 0.4125066770475195
Li 0.375 0.25 0.462502861591794
Li 0.375 0.25 0.5124990461360687
Li 0.375 0.25 0.5624952306803432
Li 0.375 0.25 0.6124914152246179
Li 0.375 0.25 0.6624875997688925
Li 0.375 0.25 0.7124837843131671
Li 0.375 0.25 0.7624799688574416
Li 0.375 0.25 0.8124761534017162
Li 0.375 0.25 0.8624723379459909
Li 0.375 0.375 0.112529569781872
Li 0.375 0.375 0.1625257543261466
Li 0.375 0.375 0.2125219388704211
Li 0.375 0.375 0.2625181234146957
Li 0.375 0.375 0.3125143079589703
Li 0.375 0.375 0.362510492503245
Li 0.375 0.375 0.4125066770475195
Li 0.375 0.375 0.462502861591794
Li 0.375 0.375 0.5124990461360687
Li 0.375 0.375 0.5624952306803432
Li 0.375 0.375 0.6124914152246179
Li 0.375 0.375 0.6624875997688925
Li 0.375 0.375 0.7124837843131671
Li 0.375 0.375 0.7624799688574416
Li 0.375 0.375 0.8124761534017162
Li 0.375 0.375 0.8624723379459909
Li 0.375 0.4999999999999999 0.112529569781872
Li 0.375 0.4999999999999999 0.1625257543261466
Li 0.375 0.4999999999999999 0.2125219388704211
Li 0.375 0.4999999999999999 0.2625181234146957
Li 0.375 0.4999999999999999 0.3125143079589703
Li 0.375 0.4999999999999999 0.362510492503245
Li 0.375 0.4999999999999999 0.4125066770475195
Li 0.375 0.4999999999999999 0.462502861591794
Li 0.375 0.4999999999999999 0.5124990461360687
Li 0.375 0.4999999999999999 0.5624952306803432
Li 0.375 0.4999999999999999 0.6124914152246179
Li 0.375 0.4999999999999999 0.6624875997688925
Li 0.375 0.4999999999999999 0.7124837843131671
Li 0.375 0.4999999999999999 0.7624799688574416
Li 0.375 0.4999999999999999 0.8124761534017162
Li 0.375 0.4999999999999999 0.8624723379459909
Li 0.375 0.625 0.112529569781872
Li 0.375 0.625 0.1625257543261466
Li 0.375 0.625 0.2125219388704211
Li 0.375 0.625 0.2625181234146957
Li 0.375 0.625 0.3125143079589703
Li 0.375 0.625 0.362510492503245
Li 0.375 0.625 0.4125066770475195
Li 0.375 0.625 0.462502861591794
Li 0.375 0.625 0.5124990461360687
Li 0.375 0.625 0.5624952306803432
Li 0.375 0.625 0.6124914152246179
Li 0.375 0.625 0.6624875997688925
Li 0.375 0.625 0.7124837843131671
Li 0.375 0.625 0.7624799688574416
Li 0.375 0.625 0.8124761534017162
Li 0.375 0.625 0.8624723379459909
Li 0.375 0.75 0.112529569781872
Li 0.375 0.75 0.1625257543261466
Li 0.375 0.75 0.2125219388704211
Li 0.375 0.75 0.2625181234146957
Li 0.375 0.75 0.3125143079589703
Li 0.375 0.75 0.362510492503245
Li 0.375 0.75 0.4125066770475195
Li 0.375 0.75 0.462502861591794
Li 0.375 0.75 0.5124990461360687
Li 0.375 0.75 0.5624952306803432
Li 0.375 0.75 0.6124914152246179
Li 0.375 0.75 0.6624875997688925
Li 0.375 0.75 0.7124837843131671
Li 0.375 0.75 0.7624799688574416
Li 0.375 0.75 0.8124761534017162
Li 0.375 0.75 0.8624723379459909
Li 0.375 0.8749999999999999 0.112529569781872
Li 0.375 0.8749999999999999 0.1625257543261466
Li 0.375 0.8749999999999999 0.2125219388704211
Li 0.375 0.8749999999999999 0.2625181234146957
Li 0.375 0.8749999999999999 0.3125143079589703
Li 0.375 0.8749999999999999 0.362510492503245
Li 0.375 0.8749999999999999 0.4125066770475195
Li 0.375 0.8749999999999999 0.462502861591794
Li 0.375 0.8749999999999999 0.5124990461360687
Li 0.375 0.8749999999999999 0.5624952306803432
Li 0.375 0.8749999999999999 0.6124914152246179
Li 0.375 0.8749999999999999 0.6624875997688925
Li 0.375 0.8749999999999999 0.7124837843131671
Li 0.375 0.8749999999999999 0.7624799688574416
Li 0.375 0.8749999999999999 0.8124761534017162
Li 0.375 0.8749999999999999 0.8624723379459909
Li 0.4999999999999999 0 0.112529569781872
Li 0.4999999999999999 0 0.1625257543261466
Li 0.4999999999999999 0 0.2125219388704211
Li 0.4999999999999999 0 0.2625181234146957
Li 0.4999999999999999 0 0.3125143079589703
Li 0.4999999999999999 0 0.362510492503245
Li 0.4999999999999999 0 0.4125066770475195
Li 0.4999999999999999 0 0.462502861591794
Li 0.4999999999999999 0 0.5124990461360687
Li 0.4999999999999999 0 0.5624952306803432
Li 0.4999999999999999 0 0.6124914152246179
Li 0.4999999999999999 0 0.6624875997688925
Li 0.4999999999999999 0 0.7124837843131671
Li 0.4999999999999999 0 0.7624799688574416
Li 0.4999999999999999 0 0.8124761534017162
Li 0.4999999999999999 0 0.8624723379459909
Li 0.4999999999999999 0.125 0.112529569781872
Li 0.4999999999999999 0.125 0.1625257543261466
Li 0.4999999999999999 0.125 0.2125219388704211
Li 0.4999999999999999 0.125 0.2625181234146957
Li 0.4999999999999999 0.125 0.3125143079589703
Li 0.4999999999999999 0.125 0.362510492503245
Li 0.4999999999999999 0.125 0.4125066770475195
Li 0.4999999999999999 0.125 0.462502861591794
Li 0.4999999999999999 0.125 0.5124990461360687
Li 0.4999999999999999 0.125 0.5624952306803432
Li 0.4999999999999999 0.125 0.6124914152246179
Li 0.4999999999999999 0.125 0.6624875997688925
Li 0.4999999999999999 0.125 0.7124837843131671
Li 0.4999999999999999 0.125 0.7624799688574416
Li 0.4999999999999999 0.125 0.8124761534017162
Li 0.4999999999999999 0.125 0.8624723379459909
Li 0.4999999999999999 0.25 0.112529569781872
Li 0.4999999999999999 0.25 0.1625257543261466
Li 0.4999999999999999 0.25 0.2125219388704211
Li 0.4999999999999999 0.25 0.2625181234146957
Li 0.4999999999999999 0.25 0.3125143079589703
Li 0.4999999999999999 0.25 0.362510492503245
Li 0.4999999999999999 0.25 0.4125066770475195
Li 0.4999999999999999 0.25 0.462502861591794
Li 0.4999999999999999 0.25 0.5124990461360687
Li 0.4999999999999999 0.25 0.5624952306803432
Li 0.4999999999999999 0.25 0.6124914152246179
Li 0.4999999999999999 0.25 0.6624875997688925
Li 0.4999999999999999 0.25 0.7124837843131671
Li 0.4999999999999999 0.25 0.7624799688574416
Li 0.4999999999999999 0.25 0.8124761534017162
Li 0.4999999999999999 0.25 0.8624723379459909
Li 0.4999999999999999 0.375 0.112529569781872
Li 0.4999999999999999 0.375 0.1625257543261466
Li 0.4999999999999999 0.375 0.2125219388704211
Li 0.4999999999999999 0.375 0.2625181234146957
Li 0.4999999999999999 0.375 0.3125143079589703
Li 0.4999999999999999 0.375 0.362510492503245
Li 0.4999999999999999 0.375 0.4125066770475195
Li 0.4999999999999999 0.375 0.462502861591794
Li 0.4999999999999999 0.375 0.5124990461360687
Li 0.4999999999999999 0.375 0.5624952306803432
Li 0.4999999999999999 0.375 0.6124914152246179
Li 0.4999999999999999 0.375 0.6624875997688925
Li 0.4999999999999999 0.375 0.7124837843131671
Li 0.4999999999999999 0.375 0.7624799688574416
Li 0.4999999999999999 0.375 0.8124761534017162
Li 0.4999999999999999 0.375 0.8624723379459909
Li 0.4999999999999999 0.4999999999999999 0.112529569781872
Li 0.4999999999999999 0.4999999999999999 0.1625257543261466
Li 0.4999999999999999 0.4999999999999999 0.2125219388704211
Li 0.4999999999999999 0.4999999999999999 0.2625181234146957
Li 0.4999999999999999 0.4999999999999999 0.3125143079589703
Li 0.4999999999999999 0.4999999999999999 0.362510492503245
Li 0.4999999999999999 0.4999999999999999 0.4125066770475195
Li 0.4999999999999999 0.4999999999999999 0.462502861591794
Li 0.4999999999999999 0.4999999999999999 0.5124990461360687
Li 0.4999999999999999 0.4999999999999999 0.5624952306803432
Li 0.4999999999999999 0.4999999999999999 0.6124914152246179
Li 0.4999999999999999 0.4999999999999999 0.6624875997688925
Li 0.4999999999999999 0.4999999999999999 0.7124837843131671
Li 0.4999999999999999 0.4999999999999999 0.7624799688574416
Li 0.4999999999999999 0.4999999999999999 0.8124761534017162
Li 0.4999999999999999 0.4999999999999999 0.8624723379459909
Li 0.4999999999999999 0.625 0.112529569781872
Li 0.4999999999999999 0.625 0.1625257543261466
Li 0.4999999999999999 0.625 0.2125219388704211
Li 0.4999999999999999 0.625 0.2625181234146957
Li 0.4999999999999999 0.625 0.3125143079589703
Li 0.4999999999999999 0.625 0.362510492503245
Li 0.4999999999999999 0.625 0.4125066770475195
Li 0.4999999999999999 0.625 0.462502861591794
Li 0.4999999999999999 0.625 0.5124990461360687
Li 0.4999999999999999 0.625 0.5624952306803432
Li 0.4999999999999999 0.625 0.6124914152246179
Li 0.4999999999999999 0.625 0.6624875997688925
Li 0.4999999999999999 0.625 0.7124837843131671
Li 0.4999999999999999 0.625 0.7624799688574416
Li 0.4999999999999999 0.625 0.8124761534017162
Li 0.4999999999999999 0.625 0.8624723379459909
Li 0.4999999999999999 0.75 0.112529569781872
Li 0.4999999999999999 0.75 0.1625257543261466
Li 0.4999999999999999 0.75 0.2125219388704211
Li 0.4999999999999999 0.75 0.2625181234146957
Li 0.4999999999999999 0.75 0.3125143079589703
Li 0.4999999999999999 0.75 0.362510492503245
Li 0.4999999999999999 0.75 0.4125066770475195
Li 0.4999999999999999 0.75 0.462502861591794
Li 0.4999999999999999 0.75 0.5124990461360687
Li 0.4999999999999999 0.75 0.5624952306803432
Li 0.4999999999999999 0.75 0.6124914152246179
Li 0.4999999999999999 0.75 0.6624875997688925
Li 0.4999999999999999 0.75 0.7124837843131671
Li 0.4999999999999999 0.75 0.7624799688574416
Li 0.4999999999999999 0.75 0.8124761534017162
Li 0.4999999999999999 0.75 0.8624723379459909
Li 0.4999999999999999 0.8749999999999999 0.112529569781872
Li 0.4999999999999999 0.8749999999999999 0.1625257543261466
Li 0.4999999999999999 0.8749999999999999 0.2125219388704211
Li 0.4999999999999999 0.8749999999999999 0.2625181234146957
Li 0.4999999999999999 0.8749999999999999 0.3125143079589703
Li 0.4999999999999999 0.8749999999999999 0.362510492503245
Li 0.4999999999999999 0.8749999999999999 0.4125066770475195
Li 0.4999999999999999 0.8749999999999999 0.462502861591794
Li 0.4999999999999999 0.8749999999999999 0.5124990461360687
Li 0.4999999999999999 0.8749999999999999 0.5624952306803432
Li 0.4999999999999999 0.8749999999999999 0.6124914152246179
Li 0.4999999999999999 0.8749999999999999 0.6624875997688925
Li 0.4999999999999999 0.8749999999999999 0.7124837843131671
Li 0.4999999999999999 0.8749999999999999 0.7624799688574416
Li 0.4999999999999999 0.8749999999999999 0.8124761534017162
Li 0.4999999999999999 0.8749999999999999 0.8624723379459909
Li 0.625 0 0.112529569781872
Li 0.625 0 0.1625257543261466
Li 0.625 0 0.2125219388704211
Li 0.625 0 0.2625181234146957
Li 0.625 0 0.3125143079589703
Li 0.625 0 0.362510492503245
Li 0.625 0 0.4125066770475195
Li 0.625 0 0.462502861591794
Li 0.625 0 0.5124990461360687
Li 0.625 0 0.5624952306803432
Li 0.625 0 0.6124914152246179
Li 0.625 0 0.6624875997688925
Li 0.625 0 0.7124837843131671
Li 0.625 0 0.7624799688574416
Li 0.625 0 0.8124761534017162
Li 0.625 0 0.8624723379459909
Li 0.625 0.125 0.112529569781872
Li 0.625 0.125 0.1625257543261466
Li 0.625 0.125 0.2125219388704211
Li 0.625 0.125 0.2625181234146957
Li 0.625 0.125 0.3125143079589703
Li 0.625 0.125 0.362510492503245
Li 0.625 0.125 0.4125066770475195
Li 0.625 0.125 0.462502861591794
Li 0.625 0.125 0.5124990461360687
Li 0.625 0.125 0.5624952306803432
Li 0.625 0.125 0.6124914152246179
Li 0.625 0.125 0.6624875997688925
Li 0.625 0.125 0.7124837843131671
Li 0.625 0.125 0.7624799688574416
Li 0.625 0.125 0.8124761534017162
Li 0.625 0.125 0.8624723379459909
Li 0.625 0.25 0.112529569781872
Li 0.625 0.25 0.1625257543261466
Li 0.625 0.25 0.2125219388704211
Li 0.625 0.25 0.2625181234146957
Li 0.625 0.25 0.3125143079589703
Li 0.625 0.25 0.362510492503245
Li 0.625 0.25 0.4125066770475195
Li 0.625 0.25 0.462502861591794
Li 0.625 0.25 0.5124990461360687
Li 0.625 0.25 0.5624952306803432
Li 0.625 0.25 0.6124914152246179
Li 0.625 0.25 0.6624875997688925
Li 0.625 0.25 0.7124837843131671
Li 0.625 0.25 0.7624799688574416
Li 0.625 0.25 0.8124761534017162
Li 0.625 0.25 0.8624723379459909
Li 0.625 0.375 0.112529569781872
Li 0.625 0.375 0.1625257543261466
Li 0.625 0.375 0.2125219388704211
Li 0.625 0.375 0.2625181234146957
Li 0.625 0.375 0.3125143079589703
Li 0.625 0.375 0.362510492503245
Li 0.625 0.375 0.4125066770475195
Li 0.625 0.375 0.462502861591794
Li 0.625 0.375 0.5124990461360687
Li 0.625 0.375 0.5624952306803432
Li 0.625 0.375 0.6124914152246179
Li 0.625 0.375 0.6624875997688925
Li 0.625 0.375 0.7124837843131671
Li 0.625 0.375 0.7624799688574416
Li 0.625 0.375 0.8124761534017162
Li 0.625 0.375 0.8624723379459909
Li 0.625 0.4999999999999999 0.112529569781872
Li 0.625 0.4999999999999999 0.1625257543261466
Li 0.625 0.4999999999999999 0.2125219388704211
Li 0.625 0.4999999999999999 0.2625181234146957
Li 0.625 0.4999999999999999 0.3125143079589703
Li 0.625 0.4999999999999999 0.362510492503245
Li 0.625 0.4999999999999999 0.4125066770475195
Li 0.625 0.4999999999999999 0.462502861591794
Li 0.625 0.4999999999999999 0.5124990461360687
Li 0.625 0.4999999999999999 0.5624952306803432
Li 0.625 0.4999999999999999 0.6124914152246179
Li 0.625 0.4999999999999999 0.6624875997688925
Li 0.625 0.4999999999999999 0.7124837843131671
Li 0.625 0.4999999999999999 0.7624799688574416
Li 0.625 0.4999999999999999 0.8124761534017162
Li 0.625 0.4999999999999999 0.8624723379459909
Li 0.625 0.625 0.112529569781872
Li 0.625 0.625 0.1625257543261466
Li 0.625 0.625 0.2125219388704211
Li 0.625 0.625 0.2625181234146957
Li 0.625 0.625 0.3125143079589703
Li 0.625 0.625 0.362510492503245
Li 0.625 0.625 0.4125066770475195
Li 0.625 0.625 0.462502861591794
Li 0.625 0.625 0.5124990461360687
Li 0.625 0.625 0.5624952306803432
Li 0.625 0.625 0.6124914152246179
Li 0.625 0.625 0.6624875997688925
Li 0.625 0.625 0.7124837843131671
Li 0.625 0.625 0.7624799688574416
Li 0.625 0.625 0.8124761534017162
Li 0.625 0.625 0.8624723379459909
Li 0.625 0.75 0.112529569781872
Li 0.625 0.75 0.1625257543261466
Li 0.625 0.75 0.2125219388704211
Li 0.625 0.75 0.2625181234146957
Li 0.625 0.75 0.3125143079589703
Li 0.625 0.75 0.362510492503245
Li 0.625 0.75 0.4125066770475195
Li 0.625 0.75 0.462502861591794
Li 0.625 0.75 0.5124990461360687
Li 0.625 0.75 0.5624952306803432
Li 0.625 0.75 0.6124914152246179
Li 0.625 0.75 0.6624875997688925
Li 0.625 0.75 0.7124837843131671
Li 0.625 0.75 0.7624799688574416
Li 0.625 0.75 0.8124761534017162
Li 0.625 0.75 0.8624723379459909
Li 0.625 0.8749999999999999 0.112529569781872
Li 0.625 0.8749999999999999 0.1625257543261466
Li 0.625 0.8749999999999999 0.2125219388704211
Li 0.625 0.8749999999999999 0.2625181234146957
Li 0.625 0.8749999999999999 0.3125143079589703
Li 0.625 0.8749999999999999 0.362510492503245
Li 0.625 0.8749999999999999 0.4125066770475195
Li 0.625 0.8749999999999999 0.462502861591794
Li 0.625 0.8749999999999999 0.5124990461360687
Li 0.625 0.8749999999999999 0.5624952306803432
Li 0.625 0.8749999999999999 0.6124914152246179
Li 0.625 0.8749999999999999 0.6624875997688925
Li 0.625 0.8749999999999999 0.7124837843131671
Li 0.625 0.8749999999999999 0.7624799688574416
Li 0.625 0.8749999999999999 0.8124761534017162
Li 0.625 0.8749999999999999 0.8624723379459909
Li 0.75 0 0.112529569781872
Li 0.75 0 0.1625257543261466
Li 0.75 0 0.2125219388704211
Li 0.75 0 0.2625181234146957
Li 0.75 0 0.3125143079589703
Li 0.75 0 0.362510492503245
Li 0.75 0 0.4125066770475195
Li 0.75 0 0.462502861591794
Li 0.75 0 0.5124990461360687
Li 0.75 0 0.5624952306803432
Li 0.75 0 0.6124914152246179
Li 0.75 0 0.6624875997688925
Li 0.75 0 0.7124837843131671
Li 0.75 0 0.7624799688574416
Li 0.75 0 0.8124761534017162
Li 0.75 0 0.8624723379459909
Li 0.75 0.125 0.112529569781872
Li 0.75 0.125 0.1625257543261466
Li 0.75 0.125 0.2125219388704211
Li 0.75 0.125 0.2625181234146957
Li 0.75 0.125 0.3125143079589703
Li 0.75 0.125 0.362510492503245
Li 0.75 0.125 0.4125066770475195
Li 0.75 0.125 0.462502861591794
Li 0.75 0.125 0.5124990461360687
Li 0.75 0.125 0.5624952306803432
Li 0.75 0.125 0.6124914152246179
Li 0.75 0.125 0.6624875997688925
Li 0.75 0.125 0.7124837843131671
Li 0.75 0.125 0.7624799688574416
Li 0.75 0.125 0.8124761534017162