%BLOCK LATTICE_CART
14.2174 0 0
0 14.2174 0
0 0 28.4348
%END BLOCK LATTICE_CART
%BLOCK POSITIONS_FRAC
Li 0 0 0
Li 0 0 0.125
Li 0 0 0.25
Li 0 0 0.375
Li 0 0 0.5
Li 0 0 0.625
Li 0 0 0.75
Li 0 0 0.875
Li 0 0.25 0
Li 0 0.25 0.125
Li 0 0.25 0.25
Li 0 0.25 0.375
Li 0 0.25 0.5
Li 0 0.25 0.625
Li 0 0.25 0.75
Li 0 0.25 0.875
Li 0 0.5 0
Li 0 0.5 0.125
Li 0 0.5 0.25
Li 0 0.5 0.375
Li 0 0.5 0.5
Li 0 0.5 0.625
Li 0 0.5 0.75
Li 0 0.5 0.875
Li 0 0.75 0
Li 0 0.75 0.125
Li 0 0.75 0.25
Li 0 0.75 0.375
Li 0 0.75 0.5
Li 0 0.75 0.625
Li 0 0.75 0.75
Li 0 0.75 0.875
Li 0.25 0 0
Li 0.25 0 0.125
Li 0.25 0 0.25
Li 0.25 0 0.375
Li 0.25 0 0.5
Li 0.25 0 0.625
Li 0.25 0 0.75
Li 0.25 0 0.875
Li 0.25 0.25 0
Li 0.25 0.25 0.125
Li 0.25 0.25 0.25
Li 0.25 0.25 0.375
Li 0.25 0.25 0.5
Li 0.25 0.25 0.625
Li 0.25 0.25 0.75
Li 0.25 0.25 0.875
Li 0.25 0.5 0
Li 0.25 0.5 0.125
Li 0.25 0.5 0.25
Li 0.25 0.5 0.375
Li 0.25 0.5 0.5
Li 0.25 0.5 0.625
Li 0.25 0.5 0.75
Li 0.25 0.5 0.875
Li 0.25 0.75 0
Li 0.25 0.75 0.125
Li 0.25 0.75 0.25
Li 0.25 0.75 0.375
Li 0.25 0.75 0.5
Li 0.25 0.75 0.625
Li 0.25 0.75 0.75
Li 0.25 0.75 0.875
Li 0.5 0 0
Li 0.5 0 0.125
Li 0.5 0 0.25
Li 0.5 0 0.375
Li 0.5 0 0.5
Li 0.5 0 0.625
Li 0.5 0 0.75
Li 0.5 0 0.875
Li 0.5 0.25 0
Li 0.5 0.25 0.125
Li 0.5 0.25 0.25
Li 0.5 0.25 0.375
Li 0.5 0.25 0.5
Li 0.5 0.25 0.625
Li 0.5 0.25 0.75
Li 0.5 0.25 0.875
Li 0.5 0.5 0
Li 0.5 0.5 0.125
Li 0.5 0.5 0.25
Li 0.5 0.5 0.375
Li 0.5 0.5 0.5
Li 0.5 0.5 0.625
Li 0.5 0.5 0.75
Li 0.5 0.5 0.875
Li 0.5 0.75 0
Li 0.5 0.75 0.125
Li 0.5 0.75 0.25
Li 0.5 0.75 0.375
Li 0.5 0.75 0.5
Li 0.5 0.75 0.625
Li 0.5 0.75 0.75
Li 0.5 0.75 0.875
Li 0.75 0 0
Li 0.75 0 0.125
Li 0.75 0 0.25
Li 0.75 0 0.375
Li 0.75 0 0.5
Li 0.75 0 0.625
Li 0.75 0 0.75
Li 0.75 0 0.875
Li 0.75 0.25 0
Li 0.75 0.25 0.125
Li 0.75 0.25 0.25
Li 0.75 0.25 0.375
Li 0.75 0.25 0.5
Li 0.75 0.25 0.625
Li 0.75 0.25 0.75
Li 0.75 0.25 0.875
Li 0.75 0.5 0
Li 0.75 0.5 0.125
Li 0.75 0.5 0.25
Li 0.75 0.5 0.375
Li 0.75 0.5 0.5
Li 0.75 0.5 0.625
Li 0.75 0.5 0.75
Li 0.75 0.5 0.875
Li 0.75 0.75 0
Li 0.75 0.75 0.125
Li 0.75 0.75 0.25
Li 0.75 0.75 0.375
Li 0.75 0.75 0.5
Li 0.75 0.75 0.625
Li 0.75 0.75 0.75
Li 0.75 0.75 0.875
Li 0.125 0.125 0.0625
Li 0.125 0.125 0.1875
Li 0.125 0.125 0.3125
Li 0.125 0.125 0.4375
Li 0.125 0.125 0.5625
Li 0.125 0.125 0.6875
Li 0.125 0.125 0.8125
Li 0.125 0.125 0.9375
Li 0.125 0.375 0.0625
Li 0.125 0.375 0.1875
Li 0.125 0.375 0.3125
Li 0.125 0.375 0.4375
Li 0.125 0.375 0.5625
Li 0.125 0.375 0.6875
Li 0.125 0.375 0.8125
Li 0.125 0.375 0.9375
Li 0.125 0.625 0.0625
Li 0.125 0.625 0.1875
Li 0.125 0.625 0.3125
Li 0.125 0.625 0.4375
Li 0.125 0.625 0.5625
Li 0.125 0.625 0.6875
Li 0.125 0.625 0.8125
Li 0.125 0.625 0.9375
Li 0.125 0.875 0.0625
Li 0.125 0.875 0.1875
Li 0.125 0.875 0.3125
Li 0.125 0.875 0.4375
Li 0.125 0.875 0.5625
Li 0.125 0.875 0.6875
Li 0.125 0.875 0.8125
Li 0.125 0.875 0.9375
Li 0.375 0.125 0.0625
Li 0.375 0.125 0.1875
Li 0.375 0.125 0.3125
Li 0.375 0.125 0.4375
Li 0.375 0.125 0.5625
Li 0.375 0.125 0.6875
Li 0.375 0.125 0.8125
Li 0.375 0.125 0.9375
Li 0.375 0.375 0.0625
Li 0.375 0.375 0.1875
Li 0.375 0.375 0.3125
Li 0.375 0.375 0.4375
Li 0.375 0.375 0.5625
Li 0.375 0.375 0.6875
Li 0.375 0.375 0.8125
Li 0.375 0.375 0.9375
Li 0.375 0.625 0.0625
Li 0.375 0.625 0.1875
Li 0.375 0.625 0.3125
Li 0.375 0.625 0.4375
Li 0.375 0.625 0.5625
Li 0.375 0.625 0.6875
Li 0.375 0.625 0.8125
Li 0.375 0.625 0.9375
Li 0.375 0.875 0.0625
Li 0.375 0.875 0.1875
Li 0.375 0.875 0.3125
Li 0.375 0.875 0.4375
Li 0.375 0.875 0.5625
Li 0.375 0.875 0.6875
Li 0.375 0.875 0.8125
Li 0.375 0.875 0.9375
Li 0.625 0.125 0.0625
Li 0.625 0.125 0.1875
Li 0.625 0.125 0.3125
Li 0.625 0.125 0.4375
Li 0.625 0.125 0.5625
Li 0.625 0.125 0.6875
Li 0.625 0.125 0.8125
Li 0.625 0.125 0.9375
Li 0.625 0.375 0.0625
Li 0.625 0.375 0.1875
Li 0.625 0.375 0.3125
Li 0.625 0.375 0.4375
Li 0.625 0.375 0.5625
Li 0.625 0.375 0.6875
Li 0.625 0.375 0.8125
Li 0.625 0.375 0.9375
Li 0.625 0.625 0.0625
Li 0.625 0.625 0.1875
Li 0.625 0.625 0.3125
Li 0.625 0.625 0.4375
Li 0.625 0.625 0.5625
Li 0.625 0.625 0.6875
Li 0.625 0.625 0.8125
Li 0.625 0.625 0.9375
Li 0.625 0.875 0.0625
Li 0.625 0.875 0.1875
Li 0.625 0.875 0.3125
Li 0.625 0.875 0.4375
Li 0.625 0.875 0.5625
Li 0.625 0.875 0.6875
Li 0.625 0.875 0.8125
Li 0.625 0.875 0.9375
Li 0.875 0.125 0.0625
Li 0.875 0.125 0.1875
Li 0.875 0.125 0.3125
Li 0.875 0.125 0.4375
Li 0.875 0.125 0.5625
Li 0.875 0.125 0.6875
Li 0.875 0.125 0.8125
Li 0.875 0.125 0.9375
Li 0.875 0.375 0.0625
Li 0.875 0.375 0.1875
Li 0.875 0.375 0.3125
Li 0.875 0.375 0.4375
Li 0.875 0.375 0.5625
Li 0.875 0.375 0.6875
Li 0.875 0.375 0.8125
Li 0.875 0.375 0.9375
Li 0.875 0.625 0.0625
Li 0.875 0.625 0.1875
Li 0.875 0.625 0.3125
Li 0.875 0.625 0.4375
Li 0.875 0.625 0.5625
Li 0.875 0.625 0.6875
Li 0.875 0.625 0.8125
Li 0.875 0.625 0.9375
Li 0.875 0.875 0.0625
Li 0.875 0.875 0.1875
Li 0.875 0.875 0.3125
Li 0.875 0.875 0.4375
Li 0.875 0.875 0.5625
Li 0.875 0.875 0.6875
Li 0.875 0.875 0.8125
Li 0.875 0.875 0.9375
%END BLOCK POSITIONS_FRAC
%BLOCK SPECIES_POT
Li li.gga.recpot
%END BLOCK SPECIES_POT
