%BLOCK LATTICE_CART
      1.35680000E+01      0.00000000E+00      0.00000000E+00
      0.00000000E+00      1.35680000E+01      0.00000000E+00
      0.00000000E+00      0.00000000E+00      1.35680000E+01
%ENDBLOCK LATTICE_CART
%BLOCK POSITIONS_CART
  Li      4.77723441E+00     -5.83897920E+00     -1.02353007E+00
  Li     -2.53492542E-01      2.35761356E+00      4.79823268E+00
  Li      5.78353202E+00     -7.23756948E+00      9.23741335E+00
  Li      6.25920886E-01      6.40309564E+00      6.12305120E+00
  Li      1.36748007E+00      8.04522798E+00     -4.95517058E+00
  Li      1.53390114E+00      7.49898563E+00     -1.53718469E+00
  Li      7.75465266E+00     -3.12109078E+00      7.36968916E+00
  Li     -5.97289060E+00      7.09252106E+00      1.15582427E+01
  Li     -2.33117660E+00      8.50093012E+00      5.40157644E+00
  Li      2.40599547E+00      1.12017964E+01      3.18013342E+00
  Li     -2.51437422E+00      1.03665986E+01      1.22301003E+01
  Li     -5.56772915E+00      1.16338919E+01      1.24861570E+01
  Li     -4.90177900E+00      1.52245351E+01     -4.89592314E+00
  Li      2.17327497E+00      1.23320195E+01      5.89018050E+00
  Li      2.07863295E+00      1.18974536E+01      1.39386633E+01
  Li     -1.04315200E+00      9.39155166E+00      9.49998849E+00
  Li      1.10562192E+01     -6.81070412E+00      1.07137930E+00
  Li     -1.57311504E+00      1.99448553E+00     -8.79245619E-01
  Li      7.43457748E+00     -4.71631575E+00      5.60361814E+00
  Li      9.48326467E+00     -5.21166041E+00      1.33015100E+01
  Li      3.64923788E-01      3.50296918E+00     -3.08294243E+00
  Li      7.25800418E+00      7.04914692E+00      1.10983199E+00
  Li      5.43590643E+00      1.62638714E+00      8.25571026E+00
  Li      7.71508084E+00     -9.62021133E-01      9.73584762E+00
  Li      2.19437361E+00      1.22404844E+01     -2.35296332E+00
  Li      7.43608130E+00     -1.12160118E+00      3.85976008E+00
  Li      4.07109086E+00      3.67368790E+00      6.87344814E+00
  Li      4.11858756E+00      4.05314546E+00      9.70561126E+00
  Li     -2.76233897E+00      1.71088435E+01      1.01663267E+00
  Li      3.87956959E+00      1.34073092E+00     -2.56715627E+00
  Li      2.11046006E+00      9.38658037E+00      4.86194297E+00
  Li     -2.43264481E-02      1.32401097E+01      1.82166182E+01
  Li      3.90753859E+00      2.12472400E-01      5.80062901E-01
  Li      1.59582467E+01     -6.32127226E+00      3.22235194E+00
  Li      1.79905678E+00      2.71509957E+00      8.23871307E+00
  Li      1.27704661E+01     -9.21098123E-01      1.21736802E+01
  Li      4.90183218E+00     -2.42317002E+00      1.31949019E+00
  Li      8.21764279E+00      4.80489166E+00     -6.44865698E-01
  Li      1.18825103E+01     -1.90014793E+00      5.86540292E+00
  Li      4.83273654E+00     -1.30264495E+00      9.78898393E+00
  Li      9.31330215E+00      3.05252150E+00     -2.55886164E+00
  Li      6.05896675E+00      6.45927828E+00      6.36570904E+00
  Li      1.04583180E+01      9.79510344E+00      7.67365891E+00
  Li      3.50431730E+00      6.80130235E+00      7.03747410E+00
  Li      1.24154111E+01      7.70899111E+00     -1.12466333E+00
  Li      5.20164062E+00      1.19096534E+01      7.37249340E+00
  Li      1.15037057E+01      5.76313657E+00      5.49602931E+00
  Li      1.13524839E+01      4.97594575E+00      1.21493453E+01
  Li      9.03862273E+00      6.96372618E-01      2.33188580E+00
  Li      2.91884595E+00      2.08546898E+00      3.47984527E+00
  Li      4.18003458E+00      5.68004035E+00      4.19826835E+00
  Li      7.82192931E+00      1.53030747E+00      4.98807075E+00
  Li      3.24322564E+00      6.88765159E+00     -2.96149047E+00
  Li      5.88577977E+00      1.72088770E+00      2.67336211E+00
  Li      1.54741262E+01      1.27323599E+00      5.81452333E+00
  Li      1.00479389E+01     -8.45332639E-01      7.93625082E+00
  Li      4.17671419E+00      1.29605738E+01      3.14726202E+00
  Li      5.29052776E+00      1.12002723E+01      4.86849141E+00
  Li      1.66038966E+01      1.36557703E-01      8.31081630E+00
  Li      4.98780146E+00      1.39935648E+01      5.59551453E+00
  Li      1.32923533E+01      7.74223220E+00      3.34214923E+00
  Li      1.54389835E+01      5.20745003E+00      8.58610749E+00
  Li      1.36540452E+01      9.20827149E+00      6.62264585E+00
  Li      9.95741293E+00      1.37188295E+01      1.10347758E+01
  Li      4.17840343E-01      1.01236470E+01     -1.59727998E+00
  Li      7.58130155E+00     -1.20019866E-01      6.93742209E+00
  Li      6.11039054E-01      2.69468169E+00      2.28859684E+00
  Li      6.10525721E+00     -4.22530730E+00      1.07161612E+01
  Li      4.88256413E+00      8.41113919E+00      5.02686620E+00
  Li     -5.20757112E+00      4.50999013E+00      5.02392975E+00
  Li      1.04997204E+01     -5.80864940E+00      1.04509367E+01
  Li      6.80042529E-01      3.43754779E-01      1.01112073E+01
  Li     -3.88176221E+00      1.91417579E+01      3.19059446E+00
  Li     -3.35777801E+00      1.34216915E+01      4.84608857E+00
  Li     -2.05174754E+00      1.54721657E+01      9.55045399E+00
  Li     -3.25102280E+00      1.32086842E+01      1.36337529E+01
  Li     -1.70485078E+00      1.51363632E+01      2.21896859E+00
  Li     -7.12405457E-01      1.19179804E+01      1.36102312E+00
  Li      7.31199044E-01      1.13458510E+01      8.49886227E+00
  Li      1.02798380E+00      1.46356368E+01      1.28778407E+01
  Li      9.29515344E+00     -5.05407822E+00      3.41733758E+00
  Li      6.09901127E+00      2.65201618E+00     -3.10088951E-01
  Li      1.99599254E+00      4.43845545E+00      5.37067054E+00
  Li      1.26316242E+00      8.95108652E+00      1.44480482E+01
  Li      2.20371506E+00      4.75013493E+00     -1.73330145E+00
  Li      2.10411391E+00      4.67052378E+00      2.46983367E+00
  Li      9.14606726E+00     -2.66883166E+00      5.14072227E+00
  Li      6.75434690E+00      9.58109071E+00      1.33091683E+01
  Li      6.61487072E+00      9.70308519E+00      2.74691415E+00
  Li      7.95148299E+00      8.43482129E+00      9.00452794E+00
  Li      7.09194850E+00      6.39633080E+00      1.72153534E+01
  Li      7.00741703E+00      4.10311226E-01      1.19162427E+01
  Li      5.23547295E+00      4.34371276E+00      1.63445990E+00
  Li      4.69965811E+00      8.37229914E+00      1.96681879E+00
  Li      1.08576240E+00      1.37453617E+01      2.30086350E+00
  Li      3.11897056E+00      1.00504581E+01      1.25806048E+01
  Li      5.29031544E+00     -1.71580150E+00     -1.13619285E+00
  Li      1.05408267E+01      2.96595657E+00      4.02152763E+00
  Li      3.23191322E+00      3.03362870E+00      1.38205241E+01
  Li      8.64347791E+00      1.82927777E+00      1.34728881E+01
  Li      3.03328292E+00      6.30316898E+00      6.71073720E-01
  Li      5.38725701E+00      3.46398655E+00      4.51368655E+00
  Li      6.56921269E+00      2.90809640E+00      1.03700052E+01
  Li      1.09094890E+01      1.54327887E+00      6.89318279E+00
  Li      5.31480166E+00      9.08702466E+00     -5.38810573E+00
  Li      8.04565431E+00      3.33119937E+00      2.19773516E+00
  Li      2.88523425E+00      1.00732125E+01      9.88388582E+00
  Li      1.12728882E+01      4.70344248E+00      9.20097366E+00
  Li      1.20567742E+01      7.21286558E+00      7.72398586E+00
  Li      8.70521660E+00      1.06608632E+01      1.53874818E+00
  Li      9.04112460E+00      1.03711774E+01      1.02331771E+01
  Li      1.16692557E+01      9.42140654E+00      1.50894230E+01
  Li      1.39838505E+01      6.34069405E+00      9.24132897E-01
  Li      2.34313448E+01     -9.51426101E+00      7.09722779E+00
  Li      5.54826764E+00      5.11397217E+00      1.16411162E+01
  Li      1.35856761E+01      3.57162913E-01      7.60306520E+00
  Li      1.07559499E+01      1.18940781E+01      2.74985704E+00
  Li      8.33589699E+00      6.81152544E+00      7.02834705E+00
  Li      1.28725631E+01      4.04247251E+00      6.96648833E+00
  Li      1.27778267E+01      4.87502580E+00      1.67136895E+01
  Li      1.31748590E+01      1.03716630E+01      3.83124553E+00
  Li      7.05254185E+00      1.72691012E+01      7.33117262E+00
  Li      1.33407964E+01      6.32773740E+00      1.02511450E+01
  Li      6.78556943E+00      1.30825143E+01      1.48233335E+01
  Li      1.19094588E+01      2.56257104E+01      9.37982752E+00
  Li      8.77616306E+00      1.89260894E+01      9.77627714E+00
  Li      1.40554202E+01      1.73290332E+01     -9.52753097E-02
  Li      1.65838963E+01      1.01073326E+01      7.11168005E+00
%END BLOCK POSITIONS_CART
